Rb Si  O 
 1.0000000000000000
    11.7555519999999998    0.0000000000000000   -0.1686850000000000
     1.1429760000000000   18.1395300000000006    0.9120600000000000
     0.0000000000000000    0.0000000000000000   35.6380520000000018
 Rb  Si  O  
  64  16  64
Cartesian
  1.3007517679724800 17.6955227381451010 16.1011444734810816
  9.6826342305750401  8.5679387118512995 13.7191412090945111
  7.3913592327107205 17.6219769207365999 12.5539040075036699
  3.6661302617299194  8.6268693285434992 17.3169674671254405
 12.5042685442547192 14.2857774189444005 15.3597583929727204
  9.2786306546249602  4.8540926977797003 13.0043600519952705
  6.5056526825664003 14.0932440847338007 11.8783342920876809
  3.1727066368134400  4.9116011753199000 17.1396324316266409
  0.7853656568179199 10.3503107901213003 15.9939648176048603
  8.9851639013635189  1.3387575372396001 13.7110410961937905
  6.8986625770921606 10.1496326255454008 12.2894676376019909
  2.9308911060230400  1.2077250097269001 17.1171206201292811
  3.6096920544710400 12.4347542940410989 17.6309935562802771
 11.9380319972003193  3.3666477912690000 14.6374567091466101
  9.4070929477904013 12.6695596261731005 13.7764361979723695
  5.0939029785372796  3.2315913718164002 11.1836592061245899
  1.7303844454368000 14.7743272036908007 11.6670839177580206
  9.4188273558630407  5.7119834482043998 16.9805469940576437
  6.9029646835100795 14.7426249285050996 15.6080447785551311
  3.0924522541369601  5.6407161371592007 13.6505502425199001
  4.3197372099846394 16.8802609715922003 14.4281669407133819
  0.5275829890633601  7.9428887824596002 11.7439405512839699
  9.8896378116003198 16.9695295894188014 17.5654121764240116
  6.5496529432636796  7.8668215703811004 15.7589983118655503
  3.8149726438211200 13.1466047768076013 14.1730360657018313
  0.5909069125984000  3.9969137425122003 10.9706318664725408
  9.7017979924131197 13.2001740740130007 17.6940956470138495
  6.1562365977728000  4.0731077499054003 15.3110997875606003
  3.5771333697980801  9.4427482019070013 13.7806175655689316
 11.7250165883587201  0.4634067636087000 11.6404715245169310
  9.2823830704383994  9.6349287222591009 17.2531437332181419
  5.7552354220544002  0.5381788132452000 15.3119291820485621
 12.8315801905430398 17.7658266587520011 23.0147309927234112
  9.5111511191353593  8.5314791635278002 20.5711483728865048
  7.1266654268236804 17.5744393800468011 19.5422972850362804
  3.5416683848422399  8.6060975713452006 24.2428458450637194
 12.5934059875619209 14.0623112884107009 22.6216269912555923
  9.1100374776684809  4.9966944361311008 20.5717665192930035
  6.7072225365712006 14.0092277678187020 19.1009447895181736
  2.9199402973344002  5.0724714157296003 25.0806532479442232
 12.0892503924364796 10.3288459214817010 22.3668677810317398
  8.7160040574265594  1.2034466201811000 20.1245639259453171
  6.5193629857859206 10.2398165640558005 19.2300886311645911
  2.9808247171065601  1.1265506129769001 24.3067711520302403
  2.9198496283984001 12.4362774703752006 25.2986575587858304
  0.4174270640172800  3.4290543046997999 22.4009267140161406
  9.5061541885411209 12.4667070761361014 21.1868049979880695
  5.8470775328582398  3.3577356587847000 18.9023488684903604
  1.0438861240259198 14.7749455802684988 19.3330673730720513
 10.1721384051743993  5.8381204793607004 24.6995750261962819
  7.0014735224841598 14.5397181412733989 23.0185456005660498
  3.3283260525516800  5.7028770413538004 21.2459640490095225
  3.8685993131759995 16.8588858936260984 20.9707137749439880
  0.5797734849312000  7.8621163576944006 18.9350472043228635
  9.5102093834387205 17.0594953093833013 24.5059066001398804
  6.2817276080652800  7.7305880768268000 22.1726839327951595
  3.9046360239548799 12.9231292137182994 21.4357847345681876
  0.3375759496787200  4.1587223408087999 18.9120758860156215
  9.9019390892137604 13.1168314592421016 24.9168441659416509
  5.9875045853545599  4.2159202695953999 22.8787325077109145
  3.3531557466729596  9.5132583689700017 20.8633026952074303
 11.6000763270019203  0.4437106805394000 18.5667453968850324
  9.0186617833555189  9.5881670092674014 24.2412890657371420
  5.5829195069926394  0.5018398927962000 22.1646447793974417
  9.6641662753270410 15.9889093185483002 14.3033457794306500
  6.4229853341385592  6.7623875793566999 12.3358198548728293
  3.9073808160195198 15.8204001592650023 17.8373179400743140
  0.4755459937235200  6.9604075772064000 15.4854764347412601
  6.6510431523062401 11.2621913120568014 15.4508686633252719
  3.1627326808342402  2.1904208056200001 13.5505925634609703
 12.3827841360179196 11.1727643361333016 12.3140665058284995
  9.0299108069161598  2.3231771326685999 16.9326171099615905
  9.7576426603836790 15.9472566041811010 21.3441290411995510
  6.2363766215599998  6.7463966766852010 18.9505983294267750
  4.0251261007971202 16.0378504960694990 24.4796552936485945
 12.1030799123119994  6.8789529247179004 22.3326764694829905
  6.7451984489468808 11.2203133047270018 22.4915383490866923
  3.0349393059273599  2.1091499065704000 20.5669299675224941
  0.7457608504092800 11.3891388174135013 19.1268318945433720
  8.8438428788550407  2.3075169136290001 23.5469803012324626
  8.6385612970342400 17.1731361997178986 14.9098984030532602
  5.1631323700540808  7.7192853356838009 12.4948623052467696
  2.7491557764326400 16.9299591117002990 18.3370825027651811
 11.0937888431584000  8.0162103952772998 15.9554667897942810
  9.8476870697193597 14.8446594219645007 15.5263336702435701
  6.2715757932521603  5.2186393856790003 12.6892466225573894
  4.1641032318783999 15.0850413898043989 12.4074422953714016
  0.6320234322668801  5.7039989712842996 16.5678306284176422
 11.1601982520630401 16.6361279303436014 13.9439495050524318
  7.8444460802099192  7.3857443650181995 12.0012627500501203
  5.3543070303363196 16.6059274268466019 17.5403450979313540
  1.9344182211359999  7.7668156205616006 15.2945798838818217
  0.9001130353657600 12.4894928653503001 13.3392593500548404
 10.5301444386374392  2.7571452530403002 11.9543950015863221
  7.1931292824694397 12.0838942443173991 16.7999680309034716
  3.5630181549148796  3.0427053529029005 14.9475216592265294
  3.3774475349215995 15.0184669565655007 16.4736864656387212
 11.7348193900211211  6.4186748672435998 13.8025434558040399
  8.8389982538697591 15.2974148349524999 13.0252128180333919
  5.6907153243436799  5.9507167141626001 17.5748357993144637
  5.2290773634675194 10.4492310890703006 15.8077433641474610
  1.9101713611923199  1.1565802421013001 13.8977593105906401
 10.9206012096204788 10.5471406534077001 12.2357450423446217
  7.6455884239158403  1.4560216172964000 17.3561145232092713
  6.4226333851232003 12.2887622775327010 14.1388840146814001
  2.7192199201110401  3.2881177752024002 12.3631483950358092
 12.3179998799417589 12.4672565224998007 17.6806397461362224
  8.7157948347945595  3.4060517481021000 15.7017701090782484
  7.8062271205744000 10.1503110439674007 14.9450342462705308
  4.5066922872025597  1.3433695127421001 12.9938372851068209
  1.8355359330502399 10.3612514662455020 11.8475915184225222
 10.1949835032617599  1.2515608165295999 16.3842656641251132
  8.6026726251081609 17.0591141978580012 21.8503672835654896
  5.0710999496649602  7.8179175788963997 19.4990853813637735
  2.8159431200678400 16.8460501808028020 25.1173044387621225
 10.7595201614809586  7.7264546221256998 22.8893115009602184
  9.9861558962422396 14.9207400572952000 22.6562343779882696
  6.5502661888944003  5.6632759078295996 20.1815632077104503
  4.0912479788627198 14.7418240682555997 19.1147049351997822
  0.7912123748156800  5.7813802109159997 23.6885843015616118
 11.1794903632899185 16.7602699759905001 20.9872352341148876
  7.6206276846835195  7.6136497827287997 18.5273510553522414
  5.4882200529967999 16.6614811886340028 24.5593456429422510
  1.6006275883401599  7.9130557858403998 22.1539855253602127
  1.2759239369286401 12.1916370664725005 20.4910342551673601
  9.5756797813523207  3.1187674859130001 18.3085039436444212
  7.5696761499596796 11.9121673138073998 23.7698525055014827
  3.5319621229273594  2.6521433138682005 22.0805329332932416
  3.7524837874665598 14.7192853394399989 23.6261002800520359
 11.7030853955990395  6.0272860284315000 20.9354066716768727
  9.2152957148604795 15.1258322951013007 19.9951307139849135
  4.7365598924537595  6.3124592121192009 23.9287497378262195
  5.2492194534060808 10.5725978512049998 22.8504415741888636
  1.5762562949657601  1.3022056587083999 20.7585871663077626
 11.0545732588531198 10.6032431359776016 19.2546555771146402
  7.4222929811702389  1.6844467325415000 23.8820059582707742
  6.5611821738070395 12.3648227779851005 21.2688987244756689
  2.8779461429632001  3.3651180847041000 19.4842220696496611
 12.2429857051136004 12.1240408335087011 24.3875991638093410
  8.9939845404022396  3.8511189026948998 23.1938992411360516
  7.7710763435862393 10.0364270839307999 21.8849746555228499
  4.1726526330198404  1.0539966650688000 19.9276523365927325
  1.9041326546902400 10.2799482788325012 18.6273862935927106
 10.1035303597727992  1.3500040458396001 23.3879080285671854
