Na Cd  O 
 1.0000000000000000
    10.7990159999999999    0.0000000000000000    0.0000000000000000
     0.0000000000000000   10.8591920000000002    0.0114500000000000
     0.0000000000000000    0.0000000000000000   32.7248310000000018
 Na  Cd  O  
  32  16  32
Cartesian
  6.4470954884428808  1.5831006816128801 12.5703274710181923
  4.8846888860155193  2.0502588863680002 21.2594979675875813
  9.5761595099656791  6.3831351340048004 19.8411546029751698
  9.2388627202512001  1.0946045989454400 12.9719341392747598
  9.2711199209939998  4.6169287115424806 17.4257276984300624
  9.0934438187361586  9.9376281912068798 15.0846513726901001
  1.0462340477676000  3.8473821885977602 20.1607893859617242
 10.2828339422061603  3.3799937689722404 11.4700347648319294
  8.9237468934204003  3.8045542954932001 14.3945295222769811
  7.7755013448808805  3.6084125290154403 19.8901007204664602
  8.9441889987477605  9.0665157540780807 17.8407848246128395
  7.6755474886176005  8.8039605810232793 13.0771843404046795
  9.5514446659677610  1.3777320768765602 20.7518154420107699
  6.6946835563634393  1.4835479530336799 15.4794488514556505
  2.3763638591198402  1.8201722630255202 12.8394724683795403
  3.5255801312076001  1.6253189396785599 18.3352086492665194
  0.8599595529902401  6.6985816305744006 17.3091245975500492
  9.5538083545898402  6.9315942632012799 14.8454294044943502
  3.8720859977963999  0.8123901618776801 15.3027090765586902
  3.6937499676708003  6.3508410915079203 17.6563205138411128
  4.1774599243034398  9.9057098767531997 12.9020000987054306
  3.8374940497944001  4.3352346469553602 19.7585949555955125
  6.2602400066047199  9.5894970470041603 15.4332380096904718
  4.1546500267279196  9.3565380587857589 17.8980828826222016
  4.3356945580564803  9.4620698584801595 20.7502930952412683
  1.1517767187813599  9.2160483482049589 15.2132347744189822
  4.1496280523272802  4.0503877245629605 11.9757463156812811
  1.2951401355909600  3.9452668366938402 17.2510503653703431
  3.5436167557209601  7.2229040337124806 14.9025831945177600
  2.2747414468944003  7.4835334376580001 19.6643824369745381
  6.5480663960330396  7.0744077322781598 17.5306085201863091
  9.7359024422834413  6.8270510843465599 11.9922869221031601
  9.3662875453759202  1.5704876215129602 17.7410053481117238
  0.9604823014164000  1.4167293900031201 15.2680496201544003
  1.7880968576637599  0.8177876146693601 21.0468330129651093
  6.3782498176200004  0.7704512022302400 18.7840001180373619
  0.9794157842085600  4.6597444423520002 13.9460136092853517
  7.1870440647628797  4.6135259837292795 11.6842683575242994
  6.3580487463297599  4.0126634345145602 17.4614442448501492
  3.9671633424045600  3.8592347794819202 14.9884459948717215
  4.9803276714655196  7.0406245687823201 12.0683833270019214
  6.6107235827469593  6.9128265388515207 20.2959694372529604
  6.6404926902033603  6.5270985915144806 14.7680085738466698
  2.0775380239545598  6.5497030855816805 11.6636142227333703
  7.4778943946515204  9.7401699648829609 21.0772815860898675
  1.2402665556393599  9.7620826198278401 17.9730265677737506
  1.2111007892068799  9.3743327995323202 12.4465469890811899
 10.3819351081660809  9.2462652444560796 20.6767540741063343
  8.2119386089735205  2.8466874477006403 11.9828635190171511
 -0.0162418280541600  8.0893356161296808 18.9695115296351702
  2.6571443225687998 -0.5947726057492001 19.5078662450837328
  7.4350582618547998  0.0426117951837600 13.8809234054811004
  5.8944428858236799  0.1626827498631200 21.0125855700920923
  5.4485492473903205  5.4664689293956004 10.8156476750936505
  2.8112542721606402  2.5844503403795200 20.7532255848377787
  9.9215353675202405  3.0933197875258398 19.2698445335746698
  8.0489277864240005  2.9342326247258401 16.4743688508113095
  5.6609417023144797  2.9155717548253604 19.2330334475713300
  0.2634970703016000  2.5129004273945599 13.4977095352464200
  0.0483277564032000 -0.0375963687666400 21.9151975041100151
  0.4953639307293600  5.2674900904159196 11.7175390703627098
  7.6347249403442401  5.5902257110235993 18.8640285263970604
  8.4771657896284811 -0.0028010199844800 19.2216405902494216
  2.6502368399745602  2.4954566557334399 16.2562549879443630
  2.4837083459531999  8.2371796059005611 16.7439178163943794
  4.5221173233235206  2.3368269906924000 13.4596903779455115
  8.0564428216583988  6.0275814062943205 13.2215215935634713
  2.0363518728124799  5.3859774491259200 18.8494188215879035
 -0.0643518762948000  5.2226805033632795 15.7598039919953194
 -0.1752952432003200 -0.0202380589465600 16.5808739683243722
  7.8827130038174396  8.0495101810211995 15.9996070213815003
  5.3813163016168799  8.1988909636439207 13.7734870770206825
  2.9936229788311199  8.4324227742403206 11.5221078624343818
 -0.6092965732538400  8.7248785152832795 13.3026238013678704
  4.7895602460813604  7.5651434147036802 19.4401122816820013
  5.2241317641796794  5.4491139859250399 16.1494688882729420
  5.3340714705381602  0.2070732806964800 16.9701942160046286
  2.2367766422251201 -0.1601800318828800 13.8658407262964403
  3.0793995629191202  5.4321785330414407 13.5078139888134316
  8.3929661858469604  7.8566108606827196 21.2186915047973415
