Cu  O 
 1.0000000000000000
    12.1277670000000004    0.0000000000000000    0.0000000000000000
    -3.0319419999999999   12.2534460000000003   -2.4755699999999998
     0.0000000000000000    0.0000000000000000   22.2801299999999998
 Cu  O  
  52  32
Cartesian
  1.5268133622697400  7.8863229920473197  9.3649119562563019
  7.5907062916087007  7.8863172329277003  9.3649073269403988
 -1.5527982193405903  9.6747233610385805  6.8855386142867996
  4.5110821577593905  9.6747242187797990  6.8855371041891011
  1.5130699255842401  0.8758164007290600 11.8845087804327001
  7.5769575793445503  0.8758108866783599 11.8845196976964012
  4.5308786396752208  2.5223767604783998  9.4260384088722020
 10.5947625641465795  2.5224005321636400  9.4260189013805995
 -1.5446666018842101  6.1966782908173803 11.7964995190499984
  4.5192166555603306  6.1966841724714596 11.7965014499946008
  1.6491070255736497 11.3670540176317196 11.7508946922885009
  7.7142638198547893 11.3658869994346805 11.7510845685075012
  0.0476490405751100  5.2456610215727997  9.4063010110862990
  6.1113504421528804  5.2456965565662008  9.4062840286760991
  2.9790089972117002  7.0332545011449605  6.9844479836693996
  9.0429167527455601  7.0332613630747209  6.9844421413241999
  3.0515335487632602 10.5219268625475006  9.4219497327045012
  9.1154182312206693 10.5219206132900407  9.4219599072972020
  2.9633288463150600  0.0609537868513200  9.3565933231409986
  9.0272103149141998  0.0609482728006200  9.3565962195578987
 -0.0116945375142800  1.7150097020533202 14.2409433357462003
  6.0522276500623597  1.7150141132938801 14.2409177135966996
  3.0354738906849601  3.5022206290413602 11.8000178238897000
  9.0993564204634705  3.5022270008332801 11.8000158681893996
 -0.0215804476818895  8.7148674361252798 11.8211394613968004
  6.0422989288763995  8.7149130189444008 11.8211353767063017
 -1.5307142158003502  7.8523985915895604  9.4147919933850002
  4.5331704060179998  7.8524033704334997  9.4147796650464013
  1.5520926256678798  9.6534250338736811  6.8794569804906001
  7.6159714261580005  9.6534332436824997  6.8794530938457008
  4.5389468831188005  0.8455707298294199 11.8183263226716004
 10.6028267751081611  0.8455686467436000 11.8183189454730009
  1.5246360515859601  2.5632594027817199  9.4017131114724002
  7.5885284654946403  2.5632625886776799  9.4017022189644006
  1.4522804159892502  6.1873267058991006 11.8094299657854016
  7.5161623696991811  6.1873158003321604 11.8094188009646999
 -1.4915743461676199 11.4209142845936391 11.8376218559681998
  4.5723249502484791 11.4209347478484613 11.8376776553160017
  0.0251660947175398  7.0396492070089804  6.8817836944664998
  6.0890480181078299  7.0396492070089804  6.8818048605900008
  3.1379163055221300  8.6656174056864010 11.8788464834387995
  9.2020835346324006  8.6655534426982808 11.8790220508632007
 -0.0000320175825400  0.0136091672654400  9.3578073426689983
  6.0638419318010204  0.0136056137661000  9.3577995941348995
  3.0672444318230996  1.7222071311648000 14.3523447779286002
  9.1311142880849197  1.7222220803689201 14.3523339596876998
 -0.0695843470288399  3.4843722595977598 11.9169293402666980
  5.9943392655560306  3.4845919638845397 11.9169399852176987
  2.9967468012002296  5.3095129934720404  9.3239595919742992
  9.0606300586411503  5.3096963050242003  9.3239521900200000
 -0.0171643697618498 10.4890236642793795  9.3464978001467998
  6.0467257398710910 10.4890273403131804  9.3465529806021017
 -0.0263063605010301  6.9785335521360006  8.7548735799183000
  6.0375841736033697  6.9785560984766404  8.7548794965306005
  0.0352066655000800 -0.0222728437252800 11.2377037583243986
  6.0990751270691810 -0.0222816662064000 11.2377376241219995
  3.0197825061482400  1.7456657408595002  8.7112572300036000
  9.0836674614802408  1.7456677014108601  8.7112548287006994
 -0.0088412726029399  3.4221965591113199 13.7022725480457019
  6.0550772463239708  3.4222113857809799 13.7023225793153998
  2.9821812024944303  5.2576423185371395 11.2231920660072007
  9.0460540603786210  5.2576554297243607 11.2231887487433983
  0.0640765996853800 10.5234446969035211 11.2276294262094005
  6.1279307808066292 10.5235440723505800 11.2277232008010017
 -0.0281693674416297  6.9791655848806800 12.4700654033469007
  6.0357143751137006  6.9791660750185205 12.4700637447150005
  3.0389389895215397  8.7657861408404401  9.9951055075733990
  9.1028242177283705  8.7657845478924603  9.9951067206026991
  3.0208594215469602  1.7452472856786001 12.4299476032232992
  9.0847162707803495  1.7451800142600602 12.4299607484999992
  0.0032854922241801  3.5021920785121803 10.0170633183593996
  6.0672166240290100  3.5021951418736799 10.0170012063081000
  3.0214142542128402  5.3386048798963204  7.5420743841497995
  9.0853000584885297  5.3386068404476807  7.5420724284495000
  0.0305199774136304 10.5511509636541199  7.4827349712498012
  6.0944056907309108 10.5511606438764609  7.4827769074055990
  6.1000071459487710 -0.0215778282681600 14.9495223453152999
  9.0982526863079016  8.7642767613621597  6.3310353434070006
  0.0361365620210900 -0.0216006196777200 14.9495253902664000
  3.0343667607546898  8.7642674487432011  6.3310448000843991
  3.0262768041271499  1.7442894338047799 16.0858688593535994
 -0.0276272865455500  6.9776658856247407  5.1803916204362999
  9.0901677020650400  1.7442884535291001 16.0858650469758011
  6.0362628837253300  6.9777134289952203  5.1803791188077994
