Ba  O 
 1.0000000000000000
    13.2111520000000002    0.0000000000000000    0.0000000000000000
     0.0000000000000000   11.3306159999999991   -2.1805780000000001
     0.0000000000000000    0.0000000000000000   34.8892480000000020
 Ba  O  
  36  32
Cartesian
  3.3765245916612803  6.2633019944272794 12.3931743939132204
  9.9819879005347207  6.2633494697083192 12.3930103490302805
  3.3306560003633603  2.4602565358483197 14.6034262880932797
  9.9361980477027210  2.4603428751422398 14.6033371024530823
  3.3729153049348799  9.9552145051550394 10.2365937638321221
  9.9781927328996787  9.9551990955172798 10.2366326653436399
  0.2876444308232000  5.4514052319671995  9.9346597693927627
  6.8932222803844798  5.4514680035798397  9.9344477735996009
  0.0490240749531200  1.2577210372320000 12.4171864609278408
  6.6545614983892811  1.2576107903383200 12.4173018789213803
  0.0184259900289600  8.8826079733538386 12.3992483939322202
  6.6238314340566395  8.8826527292870399 12.3994243447710399
  3.2924529157903999  6.2924428657991998 16.7227178786680426
  9.8977752616720007  6.2924067211341592 16.7227161123998620
  3.3204777325279999  2.5345758590908800 19.0025390860005636
  9.9259014079454406  2.5348617305325596 19.0026599118275392
  3.2768007392353602 10.1035220710406382 14.5161253650702395
  9.8821345788191994 10.1037790494115196 14.5159754285269607
  0.0177158906089600  5.0188526210222397 14.4328964097928409
  6.6231264869859201  5.0191099393116003 14.4329156206850211
 -0.0104368100800000  1.2613311981019200 16.7127324014442031
  6.5950814571857599  1.2613006054387199 16.7128998262230404
 -0.0260461825025600  8.7806903288015992 16.7388491405386439
  6.5794084070105603  8.7808226703964785 16.7388951943460000
  3.3517486614235197  6.2960067977558394 21.0182727159426435
  9.9573837152729592  6.2961793630375196 21.0182778839125000
  3.5900711058159995  2.1022350173589599 23.5012869193011831
 10.1962826943387199  2.1024425942440801 23.5007888752859806
  3.3211699968927997 10.0016452167059988 18.8555274174093022
  9.9265901052992014 10.0019016285460793 18.8556343747602000
  0.0279625922116800  5.0933099511676803 18.8320799892620023
  6.6333146631852795  5.0934930539222396 18.8322146617592807
  0.0738560204753600  1.2903374617557599 21.0422285240448623
  6.6791099325895997  1.2905173919378399 21.0425577913228636
  0.0701870193419200  8.9291706865811999 21.0182944563053020
  6.6753569085294400  8.9291097278671199 21.0183752685259826
  0.7569935930276800  6.2495329165579196 12.0857240822783609
  7.3626491241627203  6.2497177189048791 12.0858887813346989
  0.6911238460478401  2.5563957928528800 14.5481422903113007
  7.2967055268432004  2.5564998079077599 14.5482562473175800
  1.0003027188540801 10.3587858931075196 10.6705346733927211
  7.6060553519563197 10.3591026971308793 10.6704374196139220
  4.3104378368158400  0.8100393345792000 12.9779646585104000
 10.9160414481235204  0.8102267429678399 12.9781553718622824
  3.9639519918767996  8.6805572562693598 12.4118736788828610
 10.5696963019532806  8.6806056379996797 12.4120614920660017
  0.6782770576200000  6.2540026179575987 16.5785006425895602
  7.2838785551433611  6.2540069235916791 16.5786205307679992
  0.7099918812227201  2.4849988620890398 18.9206120884296212
  7.3153576917944001  2.4851369822980796 18.9210003403425233
  0.6585545251337600 10.0636739941610394 14.6099573154553024
  7.2643630414089602 10.0639324455119983 14.6100781848938404
  4.0127349633059195  5.0686303965396000 14.5147505760585798
 10.6182334138436794  5.0687661373192796 14.5147984179399003
  3.9811246399155205  1.2996207487507199 16.8569625901560016
 10.5865528071246402  1.2998773872031200 16.8569847230227019
  3.9615951223600003  8.8204657764326395 16.6449676692272028
 10.5669170719070404  8.8205825950835983 16.6449532119950590
  1.0075039856977599  6.7435604644478397 20.4574936897404420
  7.6134226829806400  6.7437629425557590 20.4574316959078999
  0.6612647929665600 10.2035571337444786 18.8428349924620413
  7.2667759262102400 10.2039011312462389 18.8431469895622783
  3.9938572839900801  4.9971991340092803 18.8873885185464800
 10.5995562798152001  4.9974937300252797 18.8873234500989611
  4.0596798671572802  1.3040257523330399 21.3497156656421367
 10.6655787477121606  1.3041245553045600 21.3495682585693416
  4.3032398727601597  8.5251440344778384 20.5845817660381840
 10.9087210166887996  8.5256002050779998 20.5844447821282195
