Ti Sn  O 
 1.0000000000000000
     8.6193679999999997    0.0000000000000000    0.0000000000000000
     0.0000000000000000    9.8548150000000003   -3.6389369999999999
     0.0000000000000000    0.0000000000000000   42.0208039999999983
 Ti  Sn  O  
   8  16  32
Cartesian
  0.0577640737508800  8.6097022888396992 16.5859506290267404
  0.1288492083584000  3.8309726088780001 23.3527126279839194
  4.1373557688644800  3.7413609036681499 18.2198603371960708
  4.0753826853318396  8.7831763016402498 21.7176665150622838
 -0.0577636427824800  1.2451167516344501 21.7959152992171283
 -0.1288491221647200  6.0238463330480005 15.0291537568573599
  4.5439854008618399  1.0716410635153499 16.6641996115928279
  4.4820116277797597  6.1134581368060008 20.1620055910478015
  3.0697879131999999  0.7197434570804999 19.6471024534110974
  3.0532492422689601  5.8258340279937499 23.4245199626062686
  5.5495800006063201  9.1350751892010500 18.7347632001822078
  5.5661199644425592  4.0289848153841001 14.9573456182082989
  5.9901541690802391  7.9339287496817503 14.3385881181603487
  5.6810578576236805  3.1539673163931998 21.6821194342970820
  2.9383106595383999  6.7008511327920504 16.6997462920749697
  2.6292138309197597  1.9208907835331501 24.0432784685527459
  7.0405337982411993  5.5262679529126508 18.1787467865642896
  7.5696841262239998  0.8579979378414500 24.9927966375535711
  7.3865219528682404  1.6510506738699000 18.5338073199165372
  7.2367117344390399  6.6604089429950495 22.6858376909677268
  1.2328460471317602  8.2037692535376010 19.8480578606149578
  1.3826592823397599  3.1944104916716998 15.6960213683900189
  1.0496806846098399  8.9968222852105004 13.3890717954741412
  1.5788335984030399  4.3285505948207499 20.2031193236264315
  3.3883346721191199  7.9850905144950008 20.1391743490595978
  3.1989122517849600  3.0793259621017004 16.7818892359156209
  5.2310328107188004  1.8697284274310000 18.2426911953656017
  5.4204546276971994  6.7754926841798495 21.5999759974696488
  1.2107277145196000  7.8937144032075501 15.1621811949985883
  0.9911524176920800  2.9496027946862498 21.9384580290724500
  7.6282159270826400  6.9052159501434502 16.4434080083395315
  7.4086404578677598  1.9611039474295500 23.2196849879708687
  3.2146920735572801  5.3800933544325007 18.5503295511845785
  3.1123670739579197  0.4248170289014001 25.4334051635063219
  7.7165396253027998  9.3015852969818500 18.1574853731035262
  7.7340740056251995  4.3537485683905501 15.1443584670658691
  0.9028287194719200  0.5532338420404500 20.2243809389590083
  0.8852948563115999  5.5010697822465504 23.2375081361116287
  5.5070004088799998  9.4300024057653502 12.9484606191800715
  5.4046750645059198  4.4747254889453503 19.8315360296299907
  1.1854513316659201  0.4801665973489000 23.2064323847796992
  1.6141549065302399  5.2628946714005505 15.6322517475151113
  5.6455071881140002  7.0200687930127996 18.8070076001567195
  5.2369115644695192  1.9831538988957500 15.2751010012547113
  2.7733180277329597  0.3403781160850500 17.4771227136720100
  3.0975187472853603  5.3445980846692009 21.3157422811645176
  7.2357275750007997  2.0872705121115001 20.5915913149242584
  7.7580042155846396  6.8520345395441007 13.5963261568409397
  1.3836404249992000  7.7675479370737506 17.7902739912397507
  0.8613634396406400  3.0027843038337503 24.7855398441816668
  5.8460493689112800  9.5144402345520511 20.9047434692974505
  5.5218489079399200  4.5102199703234502 17.0661231705569669
  2.9738603809175999  2.8347498532687503 19.5748580534365892
  3.3824562631431196  7.8716649444821005 23.1067654199759360
  7.4339177888519199  9.3746530344141501 15.1754320645038305
  7.0052143863749592  4.5919246647180501 22.7496107098963272
