Ba  O 
 1.0000000000000000
    11.5796279999999996    0.0000000000000000    0.6490220000000000
     1.8552160000000000   10.5603429999999996    1.4413290000000001
     0.0000000000000000    0.0000000000000000   34.5414559999999966
 Ba  O  
  27  54
Cartesian
  4.6048671095916802  4.4236577732293396 20.7086461500655368
  8.4648979533627600  4.4243798894836797 20.9258762155486586
  0.7416573913145200  4.4207312909771801 20.4997398842875214
  2.5714943108666799  7.4884382773173401 23.2904261809930375
  6.4307919954107593  7.4885787298792401 23.5146059114471768
 10.2922749604718806  7.4854035515494299 23.7246592197494692
  2.6605520150257198  0.5038043955696000 21.6516590240540587
  6.5202577913139192  0.5047458501480500 21.8742211396047495
 10.3790220192941991  0.5042865808309800 22.0897194153605163
  4.8491174908804799  5.6244956020487695 17.0779905043465092
  8.7092310646852003  5.6252595372613889 17.2897618993117668
  0.9908705312864400  5.6218800162945293 16.8651162073132497
  2.7664431598082002  8.4576732108734305 19.6708618129245103
  6.6245382223396803  8.4559017133351801 19.8928405213359376
 10.4857438742063191  8.4572134135392094 20.1060125832655494
  2.8773901267894400  1.7597045920150398 17.6547804746423971
  6.7347704047711998  1.7608888288790601 17.8727985457140583
 10.5956068707755602  1.7607206026150699 18.0874591758388661
  5.0684188725594401  6.5968159510191704 13.4581721724591077
  8.9321837403062005  6.5868352652464406 13.6653275162790582
  1.2105620521138800  6.5941536885488699 13.2473379604300696
  2.9143488753224398  9.6579081497109893 16.0331879033341487
  6.7764195465400796  9.6572748459412789 16.2533156714087603
 10.6320397590431597  9.6572972338684391 16.4641623964496979
  3.1146052558921200  3.0204791259789898 13.6581622085740282
  6.9723363006890002  3.0144570903832402 13.8745388342494991
 10.8369235243843995  3.0121367718192795 14.0887755021773984
  0.8692569827456800  1.8932210150292099 19.5900939088009096
  4.7255139967923592  1.8945309199749301 19.8115840204589233
  8.5866954763786012  1.8936946464127600 20.0280439353545354
  2.6041200752433999  4.5987767730954401 22.5839994732076157
  6.4630373115471196  4.5940484851206200 22.8134969475753415
 10.3177067514959599  4.5971459393259497 23.0197832083325054
  4.5881843232771997  8.4828097841094703 21.7552836364249700
  8.4524645464927204  8.4815703166515597 21.9711245666208761
 12.3114018246027985  8.4858907641797199 22.1866406163245600
  2.6388378232699599  3.2549400724718498 22.2113668038145633
  6.4990193075833194  3.2544717212598000 22.4343863576319400
 10.3552989380340410  3.2538017730998798 22.6428953758757778
  4.6104974783077202  6.9861966013048793 21.6217082635887365
  8.4595399458666787  6.9843526598136503 21.8412433446482481
 12.3208106995805586  6.9894631266016392 22.0482066824678391
  2.5321834053273200  9.7877799871489994 23.9137100871769803
  6.3921211071647193  9.7886007370069592 24.1298904544494768
 10.2514309437482005  9.7848799057543392 24.3463381898121582
  1.0334527882368798  3.0304598117517196 15.9415899305972797
  4.8980388035543196  3.0306314173254698 16.1571358621944086
  8.7531655081203201  3.0317289537734600 16.3746774469044603
  2.8059176816462799  5.7977716108545092 19.0116213843770261
  6.6662992763990401  5.7995187140004303 19.2188429604566906
 10.5227413134595587  5.7993230308446391 19.4389234464541794
  4.7808349281611200  9.6931324905977796 18.2533099726528576
  8.6377172102173603  9.6949978695852987 18.4708185290749007
 12.4957372082536793  9.6937568180759399 18.6850717976534604
  2.8350077980397201  4.3861729909233995 18.5001311750125410
  6.6953395091461596  4.3860291590517395 18.7126992974586166
 10.5523018263620010  4.3861024478321600 18.9318862083232382
  4.8094586951548397  8.2812146314977788 17.7427441914358788
  8.6648890923517996  8.2820779395380288 17.9629411174053075
 12.5236853780110788  8.2818584956104893 18.1742485226829658
  0.8615201703395599  0.4871083876831699 19.1495199354908472
  4.7231258048797198  0.4887524218814100 19.3695059026954866
  8.5805504039892408  0.4885687775166400 19.5863190601898971
  1.2340136402830399  4.2964612930869492 12.6212953236158469
  5.0967913646072400  4.2963460797448203 12.8380327359143962
  8.9553489352729994  4.2894933675686895 13.0558810234336491
  3.0515873614826399  7.0909721004136799 15.1421685701583595
  6.9182058537071605  7.0999453294642096 15.3341778565492888
 10.7573488566235600  7.0937785115659304 15.5603603646057689
  3.1395321503204401  0.2674651864707600 13.0992774429562591
  6.9961559454939595  0.2664380875105800 13.3088123094215991
 10.8540269016119595  0.2623593662336900 13.5344806474392474
  3.0328454820683599  5.5952649950384901 14.9973780730640911
  6.8917848531352792  5.6019735585326691 15.2129079010925672
 10.7577790690686790  5.5963842857930599 15.4319157167331991
  4.9938222076088792  9.4850480072125887 14.1666777671678510
  8.8528181994047603  9.4860701428115597 14.3743543828056186
 12.7116558779923192  9.4781759696087686 14.6010437712185883
  1.1156776168639999  1.6249290593049799 15.5051522739158187
  4.9749737338146387  1.6254165247378598 15.7197564116406596
  8.8321023978136797  1.6268664598317599 15.9390385564029184
