Rb Sn  O 
 1.0000000000000000
    12.6776890000000009    0.0000000000000000    1.4111309999999999
     0.6164610000000000    9.7436539999999994    3.6857760000000002
     0.0000000000000000    0.0000000000000000   41.4992870000000025
 Rb  Sn  O  
  32   8  30
Cartesian
  2.1173934589575398  8.2884488238809197 21.5317777517263593
  8.9090621964730214  8.8245399900070005 19.1464129095008886
  4.9917526468824693  1.6981973888346198 20.6120783312105225
 11.2474023932283114  1.3661829634038598 18.3041730691299591
  1.6722782641287701  0.1712043803224400 14.6047539441641110
  7.8362411451743004  0.2430329411892600 19.1422910038432796
  5.4833748585695803  9.0888795742711395 20.8557046357733320
 11.5856636737164997  9.4725765815583198 25.0855780894001228
  4.9532598397776306  5.4564908659353195 20.4174452773623329
 11.7760914130598007  5.7058860234404198 17.8753526576903212
  2.0283217400720703  4.2445909661348002 22.0285791941709697
  8.3946993657464297  4.5589200749363199 19.2071863861927383
  1.8835679062831301  5.8630698702760995 18.5599369860593839
  8.1119641436767207  6.1363396108677790 22.6291211998384831
  5.2566732735288602  2.8004511706808199 16.3129254374973591
 11.6363865528294994  3.6495427035124401 21.3089990369242130
  2.0491689587882500  8.3790827344042782 28.2922081731878521
  8.3041994362966705  8.0465659261732796 25.9729123919983493
  4.3988111682536406  0.9309568368107599 27.4538301155366717
 11.1784046451754708  1.4551671758684799 25.0643349331986514
  1.7043166696506500  0.2701041248436200 21.5126306867482811
  7.8176374741483006  0.6522179832288800 25.7413769208770518
  5.4537693693914404  9.5017437226246191 27.4489255712011584
 11.6197422709436395  9.5720950481084994 31.9873040952011891
  4.9003658119271707  5.1896148136618994 27.3880276786921613
 11.2648282896013292  5.4946914460615597 24.5680759387163121
  1.5158735442952200  4.0365690199348796 28.7164060670851775
  8.3349327536165614  4.2840306467402200 26.1829409605214920
  1.6579951327987401  6.0961101096691195 25.2840033285790611
  8.0304422587744799  6.9385900860790404 30.2740295351266298
  5.1801402414775701  3.6075377136819000 23.9644882686111416
 11.4121333595937511  3.8759376734409199 28.0395867441792319
  1.7895476426774204  2.3446077645333401 18.0960506812999924
  8.2792579953698695  2.5449820141451998 22.1934013762382634
  5.5070088613667405  7.5031612707913400 17.4254491857176994
 11.5871155167536504  7.3116928183720198 21.4853646107153509
  1.7086635635278802  2.4308390049968001 25.1133812232447511
  7.7959221631432607  2.2413395501777997 29.1783988374561396
  5.0141620367598696  7.2014294399368000 24.4060764180567418
 11.5022479099021009  7.3964501362948996 28.4981958209500803
  0.5899379218767001  1.0392101968623200 19.0516275388991509
  6.9818119534108707  0.9757179166117399 16.7570873044729218
  6.0174682919714106  8.7489717172984385 23.6679001409386593
 12.6343323697323413  8.7625978276712786 20.5978924140560125
  6.8536732797743216  6.8169404684524997 18.7107236283293723
 12.9463459452052216  6.0920862728767400 22.3323670286204639
  0.4833260428815700  3.6511513807878395 17.2728333803897591
  6.8780425661062097  3.8040889432103202 21.4678184053347216
  3.9337369244224099  7.6950076795493194 18.6355239144025724
 10.4052139582198908  7.9538508685920597 22.9708252781778910
  2.8593462181909199  1.3302820804947000 16.7646370838022598
  9.4402792143401104  2.0726198016253599 20.6256773215612128
  3.9052619069709800  6.2779873962735397 23.0068756483325245
 10.5081821533301500  6.2567549024055999 20.1521762762852319
  2.9724991353894099  3.3460796202151797 19.3833645975612505
  0.6597759715019901  0.9816020118258000 25.9993270780009844
  7.2824141208762505  0.9893973247719600 22.9239596185087002
  6.3094456709179303  8.7791620394712790 29.8385449632542930
 12.7024922480867417  8.7041035547399996 27.5456368698443228
  6.4113861662034006  5.9400584754282395 25.1332185875946017
 12.8126906038048816  6.0918771740618993 29.3171411937426001
  0.3469327796612100  3.6501219637427393 24.2669439828279110
  6.4392827599745406  2.9307515940747200 27.9048090444250434
  3.8502372692194600  7.6736337078252994 25.9737983682414395
 10.4300262726704212  8.4073517054448601 29.8295745789318829
  2.8870249779288302  1.7901773851580800 23.6256514186516924
  9.3590630474772105  2.0488129369340800 27.9536990130391629
 10.3192142846085808  6.3929507236522003 27.2130702523906507
  2.7939023649982002  3.4830867955303599 26.4428170977540340
  9.3912865975458324  3.4675844471432797 23.5915339690603787
