Ba Na  O 
 1.0000000000000000
    18.7186860000000017    0.0000000000000000    8.3690069999999999
     4.6550339999999997    8.4551909999999992    0.2276480000000000
     0.0000000000000000    0.0000000000000000   54.9547510000000017
 Ba  Na  O  
  32  16  16
Cartesian
 17.7288400141871421  7.8928014957549895 40.3788459165565001
 11.9404426514047195  5.8126235298649194 24.5959185165898262
 18.9628219605074406  1.5777936838934099 37.7987743267856047
  6.0916102815898796  3.6742117042409999 27.0171890897669407
  5.0381621108829000  3.7333828218971994 33.5314449550255205
 17.9568630586711819  1.6166298135388799 26.3136141609438212
 10.8485395238185198  5.8085475359395486 31.1245768056395988
 16.7176927505457016  7.9146657741618887 28.7057769443804318
 21.4129232591225431  5.0932704225134398 37.6191950215734181
 15.6408331168323009  2.9806941939572100 40.0322529563538509
  8.5664104837180197  7.1899229898593697 26.7949603078147476
  9.7577805532057216  0.7754901642692400 24.1489847296127103
 20.0277808333884018  6.5477652690264287 26.5060267107546785
 14.2380665772200992  4.3906399919217591 28.8928701640541910
  2.4767451574578003  0.2734186397876699 33.7656466701387359
  8.4002381517738609  2.2987452451034396 31.3400216235754883
 12.5245985457400195  2.6469049831180795 32.4257972736585813
  6.6552628057950596  0.5409172930447800 34.8451166964442010
 18.3353719849122641  4.7221549254857100 30.0191990590895799
  5.4187543985266799  6.8394797584113594 37.2369116138750655
 17.2828282950275423  4.7807017963903800 36.5354656525248203
 11.4337139240044809  2.6425804911292197 38.9555396843936208
  4.4113579329133792  6.8769239945144092 25.7539192471265928
  5.6450863386610202  0.5618184406448700 23.1728934883969302
 14.9729952768825605  6.1562137444555196 32.2109324807415121
  9.1352675539080010  4.0647218874883499 34.6575801194013451
 20.8964481475280408  8.1822695254431288 29.7858506479997800
  3.3450498938946600  1.9084196386756198 37.0430536198194176
 14.8079122866095414  1.2649209245500799 36.7565472777272788
 13.6162127957833814  7.6796815578952797 39.4026251953849496
  1.9611789334324199  3.3615499019131194 25.9339974522854213
  7.7333289286782598  5.4739013069406592 23.5208880692810212
 19.5871625697546001  4.0923881179594499 41.3218654794428275
 13.7663266454067603  1.9883983895194497 25.3671083225705907
  6.6353320498215602  6.2277309629060991 30.5188019040616396
 12.5235881975959202  8.3272850981474988 28.0426331577662467
 21.9537681409258241  7.4864518649996992 41.1993476555566858
 16.1267007919064405  5.3881384444856391 25.2882619027068323
  4.4465750800779604  1.1986506594264599 30.0745998598448416
 10.3049880048901805  3.2608570322941195 27.5853448860575980
 18.9273096749107808  7.2559838199019193 33.4765874454474499
 13.0686464045125810  5.1942213445617593 35.9656073491667101
  1.4196144503824200  0.9686763974830799 22.3526169719095620
  7.2471528375987599  3.0670440157714496 38.2629908412540090
 10.8501747550927217  0.1279563793427700 35.5083660718179317
  9.6079426436217616  6.4670372191561798 38.1836400363406412
 16.7386915630915212  2.2274454096134697 33.0323143990160659
  3.7862736674290201  4.3629110239334397 22.2298927805583588
 16.0599869652958205  5.8167954902081398 29.9462218814503096
 10.2234873218589009  3.7040747624377195 32.3890153915217596
 21.6165060405115241  8.1580117515679493 27.3986916786502874
  4.3496504429182199  1.6611531583066799 34.8096684374061098
 13.1495156909614828  4.7507679682449897 31.1618650289955816
  7.3133341975911597  2.6387128331100898 33.6044361475705458
 19.0234918685746806  6.7949153214152993 28.7412286642405803
  1.7568237765655799  0.2972246528077199 36.1519924617794288
 16.6452484031353833  2.6525161860733197 37.7870087678339743
 10.8544249228863627  0.4382985845717099 39.8823814439541806
  3.8005407550661396  4.7562864177549589 26.9897778410404001
  9.6149186797260597  6.8287688070044696 24.4668753257615315
 19.5732200512063805  3.6985996035056696 36.5631041668720940
 13.7586989327149816  1.6259230830707998 39.0852438798883242
  6.7286120208661799  5.8020047400399299 25.7655922504279324
 12.5192132232962408  8.0171194373066399 23.6694926843048599
