Na Sn  O 
 1.0000000000000000
    12.8698359999999994    0.0000000000000000    0.0000000000000000
     0.0000000000000000   11.2399290000000001    0.0000000000000000
     0.0000000000000000    0.0000000000000000   38.9362569999999977
 Na  Sn  O  
  64   8  44
Cartesian
  9.4005648879354791  5.6003427311461200 16.4731185157415503
  9.5122005480650405  0.0172888091906400 13.3390087533505994
  4.8981337146039197  5.6079656509939202 17.1141362381593680
  4.0561856973265602  0.0242022647199600 13.4890496197000989
 11.2594371535724402  5.6038403722523400 18.4126798772378706
 11.2120591689089188 -0.0147371205090600 15.2901957024619772
  2.9748441875345200  5.6137253278113901 19.0910647254985868
  3.0612701555105599  0.0266096327131800 15.9594823155495096
  1.1026921816209598  7.4773538877060908 17.8026157004099090
  1.2822957622369999  1.9928401984950301 14.7049860959273992
  7.6055542929108402  7.4316789750238206 17.9016352743117473
  7.6293055752488392  2.2518431188342203 14.8740220152543490
  9.9932357647452399  7.3857078902123998 13.4764977385310090
  9.4303998704490404  1.6791110754484500 16.9251816978389300
  4.2420054087305994  7.5850524145997102 13.3579804445738493
  4.8392929531102800  2.2914671281386298 16.5418519114985081
 11.2876390825959607  9.0078783845411703 19.1400294048515072
 11.2694399762067192  3.4486324305963301 15.7750459384913491
  2.9918335293397598  1.7308200316150799 18.8327421284320877
  2.8951836349469602  7.1207593846300803 15.6717593401848792
  3.0002963473982796  9.5238578908194302 18.8296315108603594
  2.9488796794995999  4.0657303845330297 15.5174031684720681
 11.2975706063387999  2.2421939769855901 19.1403373906443797
 11.2785951914420401  7.7415758442778495 15.8901711057386699
  7.6095792054214790  3.7959620849962201 17.8822582566531310
  7.6390534464319595  8.9582808490371892 14.8567514490994306
  1.1267321343804400  3.7800544382811001 17.7477696994371392
  1.2551957485717999  9.2567685159604807 14.7531576437252294
  4.8779843132672394  3.5564552711046900 13.5053421070791799
  4.8071645658215196  8.9467590226178686 16.4995453320925876
  9.5073206923489195  3.9083966683732796 13.5774146762364598
  9.4152736948015203  9.5433514120834193 16.9225079450707412
  9.4960517352489600  5.5935475196698805 22.9771110937109668
  9.4097266667871597  0.0061409352091500 19.8451327020281987
  4.7767219983503999  5.6349531701200801 23.6461936808118161
  4.8243231459701601  0.0161708858523000 20.5235903610895107
 10.4908630313933600  5.5960423343107202 25.4471836291831295
 11.3329257189094790  0.0121435068923100 21.8221795555886970
  3.0773658159039599  5.6024633685505503 25.5971368889543776
  2.9655132990377999  0.0195799563180000 22.4628059686236696
  1.2039238663281200  7.9013383966952100 24.0794265102988589
  1.1745518118154799  1.8241628087906101 21.0539847262943489
  7.6901546746502802  7.6028635432909804 24.1829058430774779
  7.5616231077248388  1.8399446807002200 21.1883482981253657
  9.4349999359305201  7.3357542737577006 20.1066106933619757
  9.3839540480070003  1.5542190539621101 23.4188195676217674
  4.8526808000092796  7.8519146304935701 19.7959881371679387
  4.8344429554136799  2.1713410613468702 23.1609244906571270
 10.6773728234037204  9.2749176293167803 25.5777633755588880
 11.2741395255204786  3.3284507261560199 22.3943751075835991
  3.0723702603622001  1.7118859216174200 25.3589217537278167
  2.9802676651232800  7.3161700462666799 22.0141240110841672
  3.5579625572716393  9.4741868461797907 25.4599648449059472
  2.9952902385910001  3.9409953848548200 22.0108630995604209
 11.3128015424513588  2.0635487934453898 25.4308934779794669
 11.2419413837205990  7.9130225276892894 22.4367743552811802
  7.7170262487264791  3.6274528446296403 24.2312794700491381
  7.5375521386605993  9.3823140269188805 21.1335614802632392
  1.1942113871939999  3.3685202862459902 24.0625013087435313
  1.1704445323544399  9.4282086802130998 21.0346287342145075
  4.8623925069532401  3.3777544499159404 19.7960114989221374
  4.8435809250687596  9.1183862192890501 23.0461594837870578
  9.4269480517354793  3.8893339735878598 20.1033532861013597
  9.3301164352583594  9.7391259102217500 23.2644669001720885
  6.6455450924841992  5.8743256668600594 14.5072070423204806
  6.4535683228393994 -0.0119583852616800 17.8839683370605691
  0.0953829877369600  5.6294669607751802 14.2440602430116776
  0.0772529923670400  0.0012806775102600 17.7787119535124667
  6.5126835979349202  5.6185069060072799 21.1577307724334176
  6.5301765364228395 -0.0094370443884000 24.6922672316134886
  0.0176812241886000  5.6317318064686797 21.0523540758511878
  0.2107093307362400 10.9857774578157912 24.4291399004331886
  7.0944461304494393  5.6293333180193699 16.4908189381737493
  0.6205419223497199  5.6325159039157198 19.1623788163695075
  0.6535516360077600  0.0092011182786900 15.8524652344598707
  3.6175093579682396  7.4842153023641398 17.8445831450173600
  3.6353436045068799  1.9219187192894098 14.5587407359102592
  4.5540544020980391  5.6714684398616706 14.6022889925519088
  4.4336277430919599 11.2361907120138902 17.8581084326114485
 10.8683833257616396  5.6076901603341298 14.5874246870795901
 10.9197097761099595 11.2179562875964809 17.7771478840687784
 10.0430097267768783  7.5073634865424799 17.8365139951166789
  9.8849606761919997  1.8184379757530400 14.5825233910484293
  7.0573247615861199  1.6477407708073200 16.9705338712673885
  0.6620881982265600  1.6437059734941901 18.7265084448332892
  0.5973244808090000  7.2227525235633010 15.4995236392576690
  0.6642449253434399  9.5984967517432196 18.7254205658127084
  0.6167289760379999  4.0244347729877399 15.4552457171598387
 10.0481801833898796  3.7177709569112700 17.8260767420652577
  9.8568860298465193  9.3752601846763497 14.5190424963607700
  3.6180737002768399  3.7626960539299503 17.8226530769872475
  3.5616065226366795  9.3510446568401697 14.5320382508596602
  7.1216094637077587  4.0741649396539197 13.6934493944473008
  7.0429534018199993  9.5701887657581395 16.9417774986600378
  7.0884468563980407  5.6108159845890295 23.0837991634289601
  7.0551141098564001 11.2271841569061905 19.7738080983678906
  0.6596547696356799 -0.0092432680124400 22.4456066558190557
  3.4214740855408396  7.4850581846398496 24.4170447415587084
  3.6133226716190801  1.9022152361517002 21.1101117301224193
  4.4843513703220399  5.6422671043196706 21.1590472072825904
  4.4333582487261198  0.0122858043934500 24.3489896153986862
 10.8688024963201588  5.6237441509248303 21.0783226124573382
 10.9888942821935185 -0.0517557142712700 24.3340482161375071
  9.9967045716423186  7.5089530373016604 24.4045726797164662
 10.0528361039595993  1.8572629385048398 21.1138686895603520
  7.0990930421339593  7.2617866613937903 20.2106475933408376
  7.0517761891914397  1.5953032424429101 23.4809014825954172
  0.6872462823377200  1.5455981408184001 25.2426059157414393
  0.6078594711618800  7.2899629154109897 21.9946788549757990
  0.6225785738967199  3.9717419858357399 21.9656187795638473
 10.0698742224432802  3.6977467985991903 24.3776782389188575
 10.0524011035027989  9.3757097818363508 21.0918214233966701
  3.4498393327832000  3.8012515955836199 24.3539703413941275
  3.6081123185144799  9.3524548183325109 21.0997017324508995
  7.0970834172425601  3.9756825925438504 20.2094806737185486
  7.0322839216809196  9.6374166918950692 23.4366772925322522
