Rb Sc  O 
 1.0000000000000000
     8.5346589999999996    0.0000000000000000   -4.9274880000000003
     2.8448859999999998   12.8809140000000006    4.9274880000000003
     0.0000000000000000    0.0000000000000000   39.4199010000000030
 Rb  Sc  O  
  18  18  42
Cartesian
  3.3288153870083796  9.6881230061022610 17.6738584929634186
  6.1737353184480792  9.6881705366749209 16.0311737866127118
  9.0185542848731295  9.6881670588281406 14.3889135833233510
  4.4856044193049698  3.6372751406693999 13.1073195956141397
  7.3304592881932988  3.6373584801829799 11.4649556194371911
  1.6407150419418599  3.6373292405082003 14.7499900122533401
  3.6840505937870098  9.8038313549002805 21.5739232504885798
  6.5289572680578702  9.8038219518330614 19.9314824547736826
  9.3737966607660006  9.8038491305616002 18.2889958827031229
  4.8506813856026794  3.0769971158307601 17.0246014117026618
  7.6954909354533907  3.0770159219652000 15.3822673453750784
  2.0057206015931697  3.0770293181157604 18.6671536671909024
  4.0489946469844300  9.2439705428660996 25.4911954087233887
  6.8938876942529994  9.2438356796965202 23.8486007275656924
  9.7387415958811090  9.2438752241025011 22.2062267978620831
  5.2058169075768097  3.1922177932247400 20.9246188653320715
  8.0507603093313200  3.1921663983778799 19.2825446254183497
  2.3609016133022100  3.1921557072192601 22.5674010866621124
  2.9347776411584596  6.1359091707872402 16.9913029343997621
  5.7796610442589902  6.1359045336582003 15.3488239999318505
  8.6245663529845391  6.1358901070345198 13.7063144164895725
  8.5602100293900403  0.1652091860634600 10.3098625525004408
  2.8704720418867202  0.1652500185608400 13.5949121219809221
  5.7153013067999288  0.1652607097194600 11.9523595215759926
  2.8446981481405995  6.4400047511094600 20.1202392125079932
  5.6895882367231394  6.4400338619751007 18.4777618055622597
  8.5344653526248493  6.4400301265100408 16.8352491178044303
  2.8451178013475702 12.8805611917655405 23.4059363523975001
  5.6900117020780900 12.8805789674268603 21.7634127256172434
  8.5348909231951300 12.8805967430881818 20.1209689241371521
  2.7555905536299701  6.7445187035184002 23.2508961199935307
  5.6004890346283602  6.7445027311850403 21.6084298984425942
  8.4453718403023288  6.7445147104350607 19.9659440162177972
  2.8195039284080301 12.7157537614097400 26.6465717076231918
  5.6643976868937598 12.7157898279689405 25.0041272655697817
  8.5092967084202495 12.7157855772673205 23.3616509426696446
  3.9306798433898997  1.2502897816842000 12.1462034574836704
  6.7755722932286595  1.2502971238051801 10.5037112187992410
  1.0857903522339700  1.2502421223024001 13.7887211220025510
  4.7189288702173400  7.3689360803377806 16.7964265334611795
  7.5637833977208198  7.3689610693109406 15.1540992177899092
  1.8740252684235397  7.3689524390985603 18.4389790845955517
  3.8787530826902694  5.2330132601722799 15.3412999719033607
  6.7236384487627401  5.2329943252287006 13.6988011796596822
  9.5685009988450282  5.2330444319841600 12.0563842822640090
  4.8898941053125800 11.8198175374381194 17.0925588007320002
  7.7347482629810793 11.8198331233440612 15.4501050950028009
 10.5796411395564594 11.8196986466018998 13.8076589283221409
  3.8390103827859297  1.1317602551019001 15.2724439400519092
  6.6838750665343891  1.1317554891637200 13.6300254165831021
  0.9941419722374100  1.1317249613975402 16.9150014679452312
  4.6861471540010395  7.5872950089846007 20.0246535538128292
  7.5310114110163502  7.5872979715948210 18.3821576195137482
  1.8412458281172599  7.5872745283313403 21.6672490726377625
  3.8484293238749299  5.2945667686675204 18.5738406565518304
  6.6933195831519097  5.2945471896782399 16.9312673606950241
  9.5382205107526801  5.2945260649792809 15.2887561019068805
  4.7501096456028602 11.9148799708495208 20.1355328339225750
  7.5949747845331297 11.9148753337204809 18.4930198997908519
 10.4398324129632485 11.9148795844221009 16.8504393605295917
  3.7842468941399399  0.9658511201716801 18.4625648614786826
  6.6290839255935303  0.9658351478383200 16.8200067915611129
  0.9393123115354699  0.9658095148194600 20.1050943026951998
  4.6557674647424596  7.6479955433547611 23.2570681932972043
  7.5006911514325401  7.6480268439757806 21.6145855139383194
  1.8108757261248201  7.6480061057042414 24.8996105445314413
  3.8157100244797797  5.5123461849934801 21.8020384076017528
  6.6606243514945795  5.5123482459397204 20.1595876090870831
  9.5055224911056779  5.5123682113564199 18.5170997065919991
  4.6956000915223299 11.7485323696067407 23.3262031701913486
  7.5404962112645304 11.7485370067357806 21.6835883848894220
 10.3854127857398097 11.7485283765233994 20.0412349042548321
  3.6446020898696094  1.0621004009990400 21.5057376202851032
  6.4895116374783193  1.0619884658563801 19.8631999008845135
  0.7997052589089000  1.0619770018429200 23.1482879047694396
  4.6040198465359001 11.6306935176331212 26.4524881972706112
  7.4489130644944090 11.6306838569476216 24.8099265302848515
 10.2937907493743896 11.6306413499314214 23.1674623290037189
