Ba Si  O 
 1.0000000000000000
    15.0734200000000005    0.0000000000000000    0.0000000000000000
     0.0000000000000000   19.0431750000000015   -0.3232210000000000
     0.0000000000000000    0.0000000000000000   40.1608050000000034
 Ba  Si  O  
  72  24  24
Cartesian
  6.7134616006220007  7.8577194108645001 16.7224090518026145
 14.2504953776836008  7.8576655186792506 16.7221999255078906
  6.9153322272378004  1.3744283966977500 21.4725618935105729
 14.4519263126380011  1.3743265157114999 21.4724134213322202
  6.9424544347806005 14.4533508751500026 25.2603272960939549
 14.4794686163962005 14.4532394725762501 25.2605087057351518
  6.0714142499506005  4.3243226555460001 15.1287849680816819
 13.6081394741047994  4.3245589813477503 15.1281331631244207
  5.9603006851548006 16.8955965547785034 19.4645564534959838
 13.4969582296532007 16.8955072422877528 19.4641535500961247
  5.8570197215936002 10.5961125508927498 24.0406382335060727
 13.3936174246146003 10.5959990535697504 24.0405795170876821
  5.6952685096498001  1.6658615286945000 25.5294073105976160
 13.2314626972174008  1.6655040882997501 25.5307121778894839
  5.9764250239972005 14.2283112014955009 15.9011094415006404
 13.5131133182724010 14.2283249125815008 15.9010899315951200
  5.8972894182630000  7.9498293440220014 20.5554583619310591
 13.4340545869801993  7.9495785454072507 20.5552786822647349
  4.8789050455909999  7.5244316653987511 26.3232734479046009
 12.4154508960472008  7.5245169788227511 26.3237181864180734
  5.4007754854889995  1.0768222290930001 17.7158967625821404
 12.9375192499498013  1.0769644816102502 17.7158445487230729
  5.2594021807773998 13.7638649212395006 21.8157501419805122
 12.7961929743086014 13.7636722043085005 21.8159397591122328
  5.3642452028532004  4.7401117193595006 22.6651361751418143
 12.9010509190702010  4.7398951984597506 22.6652402521770782
  6.1191306683026001 17.5119355787647528 13.5840185392260295
 13.6557035001806000 17.5118456949787529 13.5838879357807016
  5.3786250947990002 11.1698681791027514 18.2880011142848709
 12.9151154750696016 11.1696674640382518 18.2883237994339609
  4.3031071846300009 10.8898523826772511 14.5207771384251298
 11.8405325691432015 10.8896851836007507 14.5205297744903614
  4.3794180314561997  4.6139512562797504 18.8984586471861320
 11.9161865163257996  4.6142161468439999 18.8986585696794727
  4.6001937414360006 17.3689424724390022 23.1227716898765223
 12.1369776011940012 17.3687533737112503 23.1230138562508003
  3.1742926760249999  1.4161805578852500 14.6312042794347210
 10.7107449205430001  1.4164180262775001 14.6307139015203003
  3.1471712221532004 14.4949308860355011 18.4188083462434911
 10.6836142718850002 14.4950339096122516 18.4188198506835334
  2.9452279416530001  8.0117227096800008 23.1687292589194023
 10.4821902707037999  8.0115027610087512 23.1687976510180036
  2.1288572423526002  7.9196411508532503 19.3362344895167624
  9.6654743900854019  7.9197007559910002 19.3365684189487297
  2.2078703011821998  1.6406418903150002 23.9904640788938046
  9.7446918444902018  1.6406893078207501 23.9899865653181585
  1.9271647835612002 14.2037489335170015 14.3623683060824625
  9.4634741320576001 14.2035600252210017 14.3614437978392822
  2.0885997551534001  5.2731785572740009 15.8509472204698216
  9.6252918177836015  5.2733046230925007 15.8514165685975001
  2.1919836701732001 18.0171510115147520 20.1036959939241804
  9.7285795643838000 18.0172416570277498 20.1038864240401196
  2.3032618367154001 11.5448168689477502 24.7630853891925220
  9.8399296311394000 11.5446793772242522 24.7631680444581441
  1.5959527575462000 11.1292675587075003 17.2264979833270999
  9.1329379981954002 11.1292201412017508 17.2257959740598920
  1.6102497456820000  4.6992484935810008 21.6029190246001797
  9.1468376509800002  4.6994324506515008 21.6032777511383713
  2.3507755175684002 17.4005712817965019 25.9844958260756727
  9.8874761720480002 17.4003867534307517 25.9845170304494140
  1.1103335912798000  8.3448047888557504 13.5679466671739632
  8.6474139452092000  8.3444882912872504 13.5685664994234809
  1.4911609850984000  2.1056806037452502 18.0754173374713218
  9.0278578712230004  2.1056070970897500 18.0757607551629818
  1.6326272928114001 14.7925880893492518 22.1755866676258435
  9.1693333737221998 14.7925663801297507 22.1757127394174276
  0.5351222370910000  4.9796036393850009 25.3702970806656047
  8.0717788771842010  4.9793690274690006 25.3705050796377236
  0.8315309421996000 17.5435426789027531 16.4457438471132242
  8.3687193725503999 17.5435369659502491 16.4454756699021232
  0.6110636343930000 11.2551707484930006 20.9927216432134429
  8.1478057407776010 11.2554122159520009 20.9927500750232170
  7.2076970352287999  7.6342045242322509 23.5588328280482813
 14.7442862971346003  7.6342477522395003 23.5588682390611126
  7.4582927934630003  1.3230975184852503 15.0007282421075718
 14.9950887119570009  1.3232262503482501 15.0005589881848103
  7.4389965548500001 13.9871665243117516 18.9605003044557385
 14.9757341392086012 13.9870343646772515 18.9606435120350305
  3.7974798621240002  4.5079984583512500 25.4080487731551514
 11.3340961054516001  4.5079458991882504 25.4080621150946619
  4.1209298305099997 17.2153868786677506 16.3821804446943702
 11.6579076851834014 17.2154047792522533 16.3821632733285334
  3.8361214786992002 10.8118184027527509 21.2614172245110709
 11.3726397447967997 10.8117626062500012 21.2616153611011534
  3.4391239228414001  8.2350959150902519 16.3325151171917717
 10.9760980091598004  8.2352149349340014 16.3327845841023240
  3.6706668781956000  1.8823243467607500 20.9306548495747116
 11.2073370843668005  1.8824328928582501 20.9304052150481574
  3.6898860916324003 14.5461054197812505 24.8907984671740543
 11.2267689837598006 14.5460202967890027 24.8910404751938721
  0.0676496596942000  5.0574890825445005 18.6296627285678653
  7.6042949947223999  5.0574942242017498 18.6299052125603914
  0.3528830819490000 17.6970978918105004 23.1861338931267404
  7.8895808724787999 17.6971474040655004 23.1862302419002440
  0.0291818396516000 11.3611903879657508 14.4834677335007100
  7.5654779235384000 11.3611610614762508 14.4833875080430001
 14.9981264582896010  9.5511152758597522 18.9570254896089843
  7.4613656608641996  9.5511255591742508 18.9569156760719899
 15.0698631250826001  3.2410211765910004 23.4623424901828308
  7.5327393597035996  3.2406964904572502 23.4627082435217318
  0.0998974329738000 15.8394196029982517 14.5893090037091095
  7.6368347401473997 15.8394156039315028 14.5890500343932707
  0.0695671494524000  6.4148138516160005 14.7295135071496812
  7.6064417511987994  6.4147904285107513 14.7299737459287616
  0.0315286204114000 19.0423862316915020 18.7996331836458701
  7.5683837774459999 19.0423332916649990 18.7996561706430008
 15.0390978226600005 12.7857588931432513 23.3926430478895639
  7.5023668706061999 12.7858504908149992 23.3925238220378979
  3.6930563333267998  6.3182603840040006 20.9344312195138222
 11.2297486974254017  6.3181743088530000 20.9344700300213944
  3.8683409139491998  0.0299364423952500 25.3023645050702726
 11.4050037341446000  0.0297799074967500 25.3026133476815431
  3.7643961169711999 12.6285176832825012 16.4287110457101484
 11.3013242293586007 12.6283462947074998 16.4285665645448020
  3.7341713473897999  3.0836342864414998 16.4989085449777733
 11.2707080030598004  3.0836546626387502 16.4987371141020027
  3.8000348068139997 15.8703683805765028 20.7683685407593224
 11.3367069725298002 15.8703028720545003 20.7684861189740602
  3.8380638396004003  9.4544380276102515 25.1617019284313237
 11.3748244862915993  9.4544182227082505 25.1618950364451592
