Cs Nb  O 
 1.0000000000000000
    10.4122319999999995    0.0000000000000000    0.0000000000000000
    -0.5014930000000000    9.4015670000000000    0.0000000000000000
     0.0000000000000000    0.0000000000000000   48.5893950000000032
 Cs  Nb  O  
  16  16  48
Cartesian
  0.7520112147379701  0.1353877356618500 18.4354316047407032
  5.9582884060468198  0.1355027168262600 18.4352868083436015
  4.3725858539136002  4.8558928087420803 26.6814348206733030
  9.5787114828161588  4.8558762619841600 26.6814527987494507
  4.6233738547761201  0.1551081805540400 21.9079757279331027
  9.8295475048781888  0.1551146676352700 21.9080500697074498
  0.5012844145479600  4.8361122878367597 30.1539293826828008
  5.7074576293646100  4.8360020074558498 30.1538710754088051
  2.5160900340787600  0.5270101030625199 32.4828297746997023
  7.7220486067446590  0.5265981263965800 32.4829250099138989
  1.9737128991638699  2.8617513465246303 24.2262170643688499
  7.1799368676719597  2.8618275932330000 24.2262330988692014
  1.7230326621384298  7.5626062984338294 24.3632892053457049
  6.9292226284864098  7.5625079580430103 24.3632517915115550
  2.2653943523917399  5.2280784705426200 16.1065477331180986
  7.4715170359574801  5.2281854603750801 16.1065632817245010
  2.6006867230045900  3.0386564960741502 20.3382564509421009
  7.8068148497700998  3.0387239053095403 20.3383235043072013
  2.3810572387562301  1.8198587857669100 28.4540512638355487
  7.5873463415110596  1.8199378529453800 28.4545162643457026
  2.1304096582837695  6.5206285594790900 20.1350973879318005
  7.3365661463212790  6.5206132349248804 20.1351066199168507
  2.3499295876147697  7.7393660997575298 28.2512031729532538
  7.5560915228073799  7.7392388965560208 28.2510457433134548
 -0.0182236845640300  4.1889312613645702 18.6208054914991514
  5.1879264142157000  4.1888717494454601 18.6207933441503997
  4.9916096618392194  0.6067039899887400 26.6536285675966482
 10.1976912183258790  0.6070061563521200 26.6534905737148513
  4.7408588771343894  5.3077025038260306 21.9359510721043520
  9.9470355893448410  5.3077452809558805 21.9358879058908514
 -0.2688698345639700  8.8893599462259889 29.9684826118318490
  4.9369971849276002  8.8897449403946407 29.9685870790311029
  1.0171826309328500  5.9336808343528098 18.5788261977949531
  6.2233459430857492  5.9336956888286698 18.5788874204326504
  3.4234748041956697  8.3181557091352296 26.6674478774286001
  8.6294746979829906  8.3179665496071902 26.6675960750833489
  3.6741558249191195  3.6174070889487999 21.9218756961607504
  8.8803313242075408  3.6174550369405001 21.9219058215856499
  1.2679438325490200  1.2329457524228600 30.0105313883709037
  6.4741865178354701  1.2327433366853500 30.0105454792954482
  4.7560611542368800  4.2235163358091201 16.8462308957184028
  9.9621622456265193  4.2235069342421196 16.8462192342636001
  0.3021064506240800  0.5526940559184800 24.9091915440646510
  5.5082352814805100  0.5528107293649500 24.9092017478376029
  0.0514641616991500  5.2535852038606308 23.6803812931210516
  5.2574697862155091  5.2535208971423497 23.6803064654527518
  4.5052039012053200  8.9240805912666801 31.7430552640368013
  9.7114770924230296  8.9242100508442697 31.7429682890197498
  4.2027253964509201  2.5307886415333201 19.3358397399099005
  9.4089288465373482  2.5307849749221898 19.3357858056814536
  0.8433693327851099  2.2722967875734699 27.3432879762565513
  6.0490552053634294  2.2722772323141101 27.3431135403285026
  0.5924918603784299  6.9731483549185498 21.2463266478088499
  5.7985854501369500  6.9731058598357105 21.2463285913846534
  3.9519965131366099  7.2313746146106501 29.2535280500289012
  9.1580503316570194  7.2315975257642204 29.2535061848011502
  3.6239622207845898  5.1330526021684699 19.6310698757178024
  8.8300779250945691  5.1330249615614898 19.6310684180359516
  0.7975909287660300  9.0737284357227903 27.7629409758409516
  6.0038049496931096  9.0735851558417107 27.7629827627206502
  1.0484264445702198  4.3729841402571799 20.8264102937035531
  6.2544903222306996  4.3729540552427801 20.8264569395227532
  3.8746128342169697  0.4323099049692500 28.9581249359748050
  9.0809694090116899  0.4321000619938100 28.9583557356010530
  1.3566750429242500  7.8188021957166098 30.0642255852096021
  6.5632029885262098  7.8184520813615297 30.0643417138636480
  3.1922182941744395  6.4609475061787602 21.9374709483799535
  8.3983362818965901  6.4610058899098304 21.9374806662589528
  3.4427964490021399  1.7602202275494201 26.6519750704848022
  8.6490254936921200  1.7601173744064400 26.6519172491047485
  1.6076346175012599  3.1179847560597400 18.5250542579242499
  6.8137940570686002  3.1179999865982801 18.5250814679854514
  1.7219408849964699  6.1790570322693101 27.5619562882569014
  6.9282490274003994  6.1791851756275200 27.5621127461088022
  2.7404392565196298  8.0831274399529498 19.4500107272353517
  7.9465725260300504  8.0831355253005697 19.4500894420552513
  2.9911509380447696  3.3822978722746502 29.1392287867006523
  8.1972399474084394  3.3824427504221202 29.1392555108679012
  1.9727404106289201  1.4785404427564399 21.0273949812876033
  7.1790047707720106  1.4784899563416500 21.0273925518178508
