Ba Zn  O 
 1.0000000000000000
    11.5612800000000000    0.0000000000000000    0.0000000000000000
     0.0000000000000000   12.6963050000000006    5.2536209999999999
     0.0000000000000000    0.0000000000000000   35.7943080000000009
 Ba  Zn  O  
  32  16  46
Cartesian
  9.1204155119903998 10.7413080229011495 18.8379745257555911
  8.3021987540255999  4.4016374164194501 16.2923277212914499
  8.2311435895968010  1.8100991266558499 13.7041753952092513
  8.9927663789952010  8.2041142352812511 16.1825681424254100
 10.3697013002976011  0.8810420567218999 16.5230230804594207
 10.4580863609951997  5.3701504125127508 19.1390475118313113
  6.9325104430271995 11.6699698568604493 21.7378893254012127
  6.9957035902176008  7.2611990214767506 19.0876134008265907
  3.3393951458784001 10.8941075457239513 21.5932192445235920
  2.4748561541759999  4.4922975406437997 18.9196830534339604
  2.3138668331423999  1.9979980925033503 16.3672583084964316
  3.4971089250623999  8.3409517095319501 19.2347031880717481
  4.5281539337760002  0.9016781230167000 13.5542631550639801
  4.7004744653376003  5.1466357718792501 15.6267404787308113
  1.2173138777568000 11.5315613418290503 18.3096730916327708
  1.1561230286496000  7.2907969016188501 16.2421258813056895
  9.2474153635007994 10.6983013211224502 24.6806340173746506
  8.0641657567487997  4.3553310719343008 21.8132295040423791
  8.2218898254720010  1.8021926296801503 19.4547020320111521
  9.0864157529279996  8.2040028886864018 22.1282415496609204
 10.3439776835231996  1.1647374369815000 22.7382332892804619
 10.4051574338016000  5.4055050512679497 24.8057828868420316
  7.0331316156383998 11.7946329712097011 27.4936536910078182
  6.8608235702591998  7.5496952555460002 25.4212347275571631
  3.3301242710591996 10.8862222515776015 27.3437496436694403
  2.5685126961023999  4.4921778144876505 24.8654149174324530
  2.4408483022176002  1.9550054836232000 22.2099486876504031
  3.2590857548735999  8.2946608545389005 24.7556285615081393
  4.6287511745375998  1.0263488551489499 19.3100532232572313
  4.5655719008832003  5.4351091525995008 21.9603340938464981
  1.1915792777664000 11.8152573569039010 24.5248889322810619
  1.1032084374432001  7.3261569997852005 21.9088810545843629
  5.8240892556575998  4.2917270275910502 19.0171024056747306
 11.4583731623327996  8.4832065701630999 18.9365950363888196
  5.8870475932512001  2.1087093642511503 16.2903345707703906
 11.5127997377376001 10.5998743592774005 21.6461980159006799
  0.0379828512480000  4.3259110670252499 16.0010355783749709
  5.5420958785343997  8.3394756371126508 16.2939483009173713
  0.1160894715744000  1.8471894772676001 13.7570022069951587
  5.8223254667808000 10.6209730789264007 18.5900494514124013
  6.0191798437920001  4.3568604688346007 24.7540218479574001
 11.5232974955904002  8.3703846646721001 25.0468827855631808
  5.7389500243200002  2.0753375074478000 22.4579144330011218
 11.4452240561376009 10.8490804809305992 27.2908850893368005
  0.1029082250208000  4.2130979219847005 22.1113094133369010
  5.7371798767391997  8.4045741635174505 22.0308472107099291
  0.0484641920832000  2.0964300059073500 19.4017210569551111
  5.6742296320415999 10.5875955087857996 24.7575911552056773
 10.4700437304479994  0.3133961004722000 13.4821053983664001
 10.4623035691007988  6.0087419245089002 16.3401159235200595
  6.9331591464480002 12.3175550504294513 18.9962235919918498
  6.9263518647839994  6.5923264411664508 16.2265880455566887
  6.0471227638751994  3.1236306561587499 14.5561575885329102
 11.2535445080544001  9.4432319594008511 17.1904910097113692
 10.5776286088416001  3.1084964066726504 14.7455210828547312
  9.5873767673183998  7.9637270940441001 19.3982633876610606
  7.8041359213056003  1.6239822141781501 16.6432610942731500
  7.8488996944991998  4.5666358030123506 18.9483313601721903
  9.5230706157023999 10.9369777622239006 21.5144757273281400
  6.9584030857151999  9.4742483977006007 17.3789325761243987
  4.6139062597919995  0.5380815943528000 16.2221042536509614
  4.6580161269887999  5.9426007775375007 19.2350500762903813
  1.1208642461951999 12.2556881145363015 21.9009128022727815
  1.1883433911071999  6.9018196974816499 18.8159243408552115
 11.4282917522880005  3.2185093816454500 17.7403691977968911
  5.9318378417759998  9.5190344866250509 20.3724727867776885
  4.8319168543008004  3.3044872355488502 17.5498932216327326
  1.9627328395584001  1.4079130676858000 13.7782197340654804
  1.9983317548704000  4.7868414056737008 16.0825665053503819
  3.8538355722335997 11.0566999825193495 18.7341968596763095
  1.0065145160352000  9.6436329767818503 20.1988439175146119
 10.4404111292927997  0.4406111721264500 19.1470023794192095
 10.3729342966368012  5.7944715905089499 22.2320036384941524
  6.9473588261567993 12.1582293729105508 24.8258111081123118
  6.9032594797247997  6.7537021910536996 21.8128866737641829
  5.6294378805504000  3.1772741953033998 20.6754899516496025
  0.1329629285088000  9.4778078068073501 23.3075379999482699
 10.5547555412640008  3.0526675795114002 20.8490689259948390
  9.5629485919680004  7.9094468352037008 24.9653605710730204
  7.7074388783520007  1.6396126352636500 22.3137317130654900
  9.5984893540416003 11.2883883773488005 27.2696727164987998
  6.7293695044031994  9.3918159869684494 23.4980661839082927
  4.6281291776735998  0.3787668356562000 22.0517231336164805
  4.6349342626943999  6.1039645928980502 24.8214200079701754
  1.0912244770463999 12.3829036940427510 27.5657752729916723
  1.0989837145056001  6.6875465702946002 24.7077980140818028
  0.3077486718048000  3.2530682160032502 23.8574263294494884
  5.5141816304255995  9.5727058306776502 26.4917991161134481
  4.6028655842303996  3.2220696794935502 23.6690168687145892
  3.7123837738848002  8.1296632297243008 22.0996266696169776
  2.0382001352736001  1.7593363791157000 19.5334516861327820
  1.9739012672639999  4.7325777789928498 21.6496401458440495
  3.7571438474688001 11.0723215161913515 24.4046713177386287
  0.9836595996672001  9.5878124022188498 26.3023994708253319
