Ti  O 
 1.0000000000000000
    10.2255839999999996    0.0000000000000000    0.0000000000000000
     7.6691880000000001    4.4278079999999997    0.0000000000000000
     0.0000000000000000    0.0000000000000000   41.9514160000000018
 Ti  O  
  24  36
Cartesian
 10.2248334932623202  2.9525501335545594 16.3501742378312009
  5.1120283533868802  2.9525383555852800 16.3501683646329603
  0.0003363705856800 -0.0005176107552000 16.1527827572113623
  5.1132228294178788 -0.0004764764188800 16.1527609424750409
  7.6689914131475998  1.4753979622905600 14.6133012930850406
  2.5563104118619200  1.4754807623001598 14.6132962589151205
  7.6697485153869591  1.4769002289887998 18.4553613174060018
  2.5569366777539999  1.4769002289887998 18.4553579612927194
  7.6680225646275595  1.4753359287004799 21.1481870517424007
  2.5552311270346801  1.4753418619631999 21.1481862127140801
 10.2267512504135993  2.9524637912985598 20.8031702162751984
  5.1139621135771200  2.9524598948275198 20.8031664406477610
  0.0001901958624000 -0.0012948681715200 18.8046693632158401
  5.1129827071416001 -0.0012989417548800 18.8046785925273596
 -0.0001881251816400  0.0012948238934400 23.1467457977558411
  5.1126008582710805  0.0012945582249600 23.1467432806708828
 -0.0003403585634400  0.0005246952480000 25.7986571550957606
  5.1123771224931600  0.0004794873283200 25.7986609307232015
  7.6699313488288796  1.4752596375686400 25.6012715476741590
  2.5571482706509197  1.4752705742543999 25.6012707086458384
 10.2250292109400789  2.9509098963590397 23.4960211214612009
  5.1122515267576798  2.9509088336851197 23.4960236385461592
 10.2257415506854805  2.9523882086160000 27.3381499461044051
  5.1129060408255604  2.9523565940668801 27.3381516241610427
 10.9944526399210787  1.5166352451465599 15.0999393967416804
  5.8817029738388396  1.5166582697481601 15.0999364601425619
 11.0847961347123594  4.3358865730857596 15.1012608663456813
 16.1975783692796398  4.3358983510550395 15.1012495394633603
  8.5974353786167192  3.0034364513260798 15.0999536602231217
 13.7101978266789608  3.0033900478982396 15.0999444309116004
  9.4271907246282005  1.3998460529961601 17.4574717948113616
  4.3143938419118406  1.3998530932108799 17.4574885753777629
  6.8555994812402403  3.0365826677894399 17.4577520302702389
 11.9683915068041991  3.0365840404099198 17.4577453180436812
  1.6111600917652800 -0.0087291578035200 17.4585000240175212
  6.7239641835183601 -0.0087329214403200 17.4585134484706401
  8.4663417300793196  0.0957573255408000 19.8020638591016791
  3.3535465857122397  0.0957617090707200 19.8020613420167209
  8.4659047908750011  2.8571716512662397 19.8046417736148790
 13.5786922660540785  2.8571704557580797 19.8046367394449625
  6.0764221488852002  1.4753643109497598 19.8024292559350421
 11.1892195684447184  1.4753623627142400 19.8024342901049621
  9.4284021751286406  4.3320431914636801 22.1493244529637643
 14.5411943540763602  4.3320400477199996 22.1493307456761599
  9.4288912648113605  1.5706131027417600 22.1467503140780018
  4.3160996738347199  1.5706127485171200 22.1467553482479182
 11.8183619939958007  2.9524708315132799 22.1489586366162392
  6.7055658781982403  2.9524719384652798 22.1489569585596016
  8.4676080919658396  3.0279544640083196 24.4939433661603196
 13.5804064829558406  3.0279517187673597 24.4939282636505595
  5.9263787548465192  1.3912503493257600 24.4936664868147211
 11.0391702180033597  1.3912514562777600 24.4936618721589632
  3.5016036600589202  0.0087173355561600 24.4929054881284820
  8.6144033803748403  0.0087167156630400 24.4929163954966427
  6.9003062202034799  2.9111841785980799 26.8515009350796028
 12.0130839043858799  2.9111717807356801 26.8515080668203225
  6.8099593765334401  0.0919197000691200 26.8501975045844823
  1.6971732818082002  0.0919142538652800 26.8502075729243224
  9.2973535447247997  1.4243643756249600 26.8514912862539212
  4.1845704921108000  1.4243788102790400 26.8514967399379998
