Ca Ge  O 
 1.0000000000000000
    14.2280789999999993    0.0000000000000000   -4.7426930000000000
     0.0000000000000000   14.2280789999999993   -4.7426930000000000
     0.0000000000000000    0.0000000000000000   37.9415440000000004
 Ca  Ge  O  
  72  24  23
Cartesian
  7.1853550426524899  9.4370872681727409  8.6223059377400695
 11.9210230235000996  4.6908017256521699  8.6578067022145504
 11.8191054439728287  9.4801249306550996  9.0676481303251677
  2.4128677812494699 14.1693989874650388  8.6235026140378288
  2.3639431088000702  4.7239184332094091 13.7954628755417996
  2.3235017861736296  9.5546040866732405  9.2175049929772310
  7.0731593834171997  0.0038437155418500 13.7146973273790920
  7.0368121905230101  4.7040038178754795  9.2200020208417293
 11.8040842918493691  0.1056012291803700  9.2142628406154987
  4.6893662547618602 11.8944539356178680  8.6210596528735302
  9.4317574297793403  7.1853971577663298  8.6745106566682697
  9.4690438181683199 11.8438136414026491  9.0681770354485316
 14.1731330045177994  2.4400281880949399  8.6116822579931398
 14.2144761027912594  7.0811761945297498  9.0467133143000105
  0.0815055505515000 11.8058478622414196  9.2375277417115598
  4.7525797601085893  2.3347156466374801 13.7189345441591506
  4.8517028026394691  7.0660710967401901  9.2159398568602988
  9.4325813778342305  2.2869868442280299  9.2019972879789016
  7.4960289891988197 12.1451041698484801  6.3023390703670614
 12.2004565192669183  7.4783036483806198  6.3231192746004199
 11.4819089353625987 11.5006457503169095  6.4512507617311510
  2.6696605617459599  2.7452772526801499 11.0437015078459098
  2.0221500769880998  6.7361400143905197 11.1920439811961394
  2.6616097455245997 12.1027087628521794 11.3161925073185401
  6.6354231424500600  1.9059197613907799 10.8083793728297195
  7.3774220152853403  7.3650452939248199 11.2940233580131988
 12.0767537588595886  2.6492458294351797 11.2739179915668100
  7.1580176385042593  9.5405010724876504 13.9067903373965098
 11.8572608834271289  4.7684218723903502 13.8318655105171597
 11.8644006757501188  9.5031341531715299 13.3980730559141676
  2.3825626843834198  0.0206294340228900 18.6009674850837108
  2.4092591135726997  4.7478987221175899 18.1228739620100896
  2.3698427817574199  9.4589837126305802 13.3575614940044005
  7.1542814872396505 14.2239750528932394 13.4765769560659709
  7.0698951775330192  4.6878832620876905 13.2842504158452286
 11.8465536848564685 14.2081734906366304  8.5931650771516583
  4.8109145994470097 11.8872677597573393 13.9331815268643116
  9.5038559436192003  7.1132192512456491 13.8345954520348915
  9.4763957511491999 11.8934027651413494 13.4727937098598733
  0.0168212886785400  2.4006045999593697 18.5764378974722675
  0.0126174604572000  7.1471290319263492 18.1458994519635084
 14.2106609856881985 11.8275731429088893  8.6157774311178486
  4.7592362245879496  2.3838349592075998 18.1226348354290323
  4.7249980598439301  7.1148805217496900 13.3576651692733801
  9.4173953222751603  2.3408883564308400 13.2572899609366388
  6.9045298984786800 11.6783398021055405 11.2234686855987000
 11.6817434431639189  6.9337953496121996 11.2223705624614816
 12.0439169176162792 12.0698309447413497 11.2495867433766286
  2.1836514366284101  2.1576632812117502 15.9421292270675181
  2.5462188865882798  7.2940695177988495 15.9691212683114898
  2.1515893142866500 11.5775230490504999 15.9173224290502322
  7.3248128394981000  2.5510799097786299 15.9673323245118883
  6.8531689520621102  6.8618103758427598 15.8980680440088289
 11.5634772317424890  2.1282938228207398 15.8761262594059112
  7.1908695615113087  9.5247474588572700 17.9708735444028207
 11.9060308966577999  4.6728978224425202 17.9737505568304776
  2.4234577404491700 14.1228701812384490 17.9740993344736992
  2.3077446155234997  9.5368588265444405 18.5346241817724220
  7.0413909286259999  4.7909750849748303 18.5680256880443082
 11.8145056483129185  0.0598491337863900 18.5662549561858299
  4.7952709688672996 11.9411062415701785 17.9892764263430003
  9.3768865585542596  7.1649805758052789 17.9744203199359376
 14.1485346478578595  2.4208530060266398 17.9530945162998599
  0.0542687389218000 11.7876162863723994 18.5785738641186811
  4.7969093321641498  7.0426492599327597 18.5163868672448686
  9.5376883235501388  2.3313310712049602 18.5704028680566964
  7.5914182992385193 12.3231958964451600 16.3816748054141570
 12.2054945397600285  7.4894664300408591 16.0001286157300520
 11.5575038573359201 11.4824521634188184 16.1479299478089828
  2.7472956479670900  2.7280816232431202 20.7396722778703335
  2.0271937887128102  6.7496088830950791 20.8662160536654504
  6.7322504844342896  2.0829196252049997 20.8889864815893276
  4.7013563992159497  9.4511289593378383 11.1266132668719102
  9.5302557173613298  4.7894495503444494 11.1862721238151401
  9.5081821333199397  9.4723919697186005  6.7979157723543011
 14.1961573087979698 14.1892842929562306  6.4017277985597989
 14.2127895063065992  4.7618297188280705  6.7973688924244708
  0.0896203931283600  9.5694799701101090 11.2576658260482709
  4.6790331123881099 14.1674961241795785  6.8048698408194106
  4.7422853181097198  4.8595288152126299 11.2755380006417507
  9.6014608501207785  0.0013634768105700 11.2729312268612301
  4.6989713463331801  9.4374897805276490 16.0054124500013515
  9.5280250391357093  4.7795385550746294 16.0680341621155449
  9.5025426919274985  9.5211245631015000 11.2746513541853997
  0.0300444384587700  0.0392814496263600 20.7893208749792500
  0.0260900284623000  4.7562210100862696 16.0163626641613313
 14.2013615132537989  9.4705080297782089 11.1757011828143682
  4.7715072313214995  0.0216157244591700 15.9969560386746288
  4.7272929067058396  4.7079380239997697 15.9174661326481335
  9.4573062221164808 14.2073324688869391 11.1941706047373408
  9.4865109193526695  9.3678918515720397 15.9161346690153085
 14.1366610313707781  4.6599400263356392 15.9346749467716986
  0.0136864160324700  9.4646846193242986 20.3942410788311292
  4.6273950029926203 14.2272578975609090 15.9187333802177324
  4.7195862677154894  4.7560938110600102 20.3940605245086211
  9.5494686038389798  0.0592872669466800 20.3864794246019798
  7.0768921199428494 11.8134697018809280  8.7501377815270605
 11.8262970265033793  7.0863886512713998  8.7715923967050173
  2.3234464389463199  2.3280311528424900 13.5000889514673315
  2.3176564644780600 11.7972864002647491  9.0307006547779700
  7.3825096917741595  2.6498610515711398  8.9222842578866590
  7.0760781315432588  7.1058856724866795  9.0072110923145008
 11.8400480380145101  2.3285392375435796  8.9941276622700492
  7.1070994699061698 11.8523904697046394 13.5658776916861292
 11.8624347820746898  7.1119096988544896 13.6050506759235805
 11.8693317010891484 11.8647124129610084  8.8608302442160003
  2.3587239648612899  2.3636114522785800 18.3302255433625518
  2.3651519263919099  7.1150482708010996 13.5871953378902504
  2.3808373875238797 11.8553893219154691 13.6115398656208271
  7.1216240620725300  2.3766214654353899 13.6265093698175210
  7.1155145249499299  7.1133424664097893 13.5960838559762003
 11.8457459568116406  2.3737128192454198 13.5808695813937810
  6.8455387178559901 11.5790458803458698 18.2678655330481021
 11.9042842576797607 11.8993298982911693 13.6926079501700126
  2.4004001424641399  7.1405149671224084 18.4187342492517097
  2.3872963662667197 11.9000127038023784 18.1963959951538996
  7.1513411124335100  2.4146330590109999 18.4421914191219898
  7.1518133423755197  7.1234755619927990 18.1852902206635179
 11.9128390324592992  2.4297984838555196 18.1610699514895444
