Ba Si  O 
 1.0000000000000000
    10.8581679999999992    0.0000000000000000    0.2849110000000000
     0.4031920000000000   15.3573909999999998   -0.0032580000000000
     0.0000000000000000    0.0000000000000000   46.0880489999999980
 Ba  Si  O  
  48  16  16
Cartesian
  7.6867106608831994  4.1393918552190403 23.5246160048620929
  2.4940607352819200  7.7956246786131702 27.2721171527041299
  2.1683403056109598  0.1526114623060300 19.6117911879592981
  8.3164935316279998 12.2127446606152397 16.1649522843800426
  5.4553461982411999  1.2421031733235299 25.1046465553830984
 10.9222257555956812  5.2705785756537198 29.0634769043113721
 11.1601060474484797 12.8249093090400805 21.3762393779009905
  5.6202970371448790  9.0628999979508897 17.4223450397071495
  5.7367470254786399 13.4234627018216202 28.5649313701558398
  0.0836430469954400  1.9901494030207298 16.7221633520400381
  0.2561468261280000  9.6240896262989803 24.3719313047315289
  5.5842974983408000  5.7633914170351401 20.7034491321639180
  7.8329626679157602  3.6135911843957098 27.4067135455375208
  2.6749044833351201  6.9317247483945295 15.9758086447820791
  2.6640979616284799 14.9461486337672600 23.4835151338299966
  7.9787334814436797 11.3012911834607390 19.8268847649062785
  7.9342941560871196  0.6513657711175300 30.3229105677820279
  2.5675683723223197  3.9905756649508395 18.8974360907640992
  2.5767313158751999 11.7267905836283290 26.5593544945087210
  7.9249934161688795  8.1048549608327711 22.8330849225283892
  8.6910871786259190  7.4428979650120901 26.6382687272061247
  3.1781559783406399 10.8423515251123810 30.2200300720860824
  3.1044861069348797  3.3605946000790801 22.6831342368260280
  8.7767923323439998 15.1702435296653491 18.9892483143057689
  2.4845648044932798  0.1871500810911200 27.3804701999120361
  8.0832015594473603  4.5150242710705299 16.1496635811574301
  8.1568646273350396 11.9967950177557299 23.6865652168903900
  2.5702804218115194  7.9144888884923397 19.7314251801115184
  3.3363665599197598  7.2525392642193403 23.5366055519260726
  8.6937871277259191 11.3668176386578104 27.4722667108455596
  8.6846312054147994  3.6305971913195600 19.8103402004662570
  3.3270530264022393 14.7060126358218497 16.0467929507638409
  3.2826166693184797  4.0560927521394001 26.5428086871727871
  8.5864439226166400  8.4256671730489305 30.3938925892871801
  8.5972513817995200  0.4112500449282400 22.8861962581202896
  3.4284177008087995 11.7437939797957096 18.9630014379555369
  5.6770697124011997  9.5940012722778700 25.6662581252043509
  0.3195505975772800 13.3672380647793396 29.3626157114023165
  0.1470401839871200  5.7333139667616404 21.7128673879588483
  5.5246005193231991  1.9339212337785199 17.8047721529153691
  5.6410632799759997  6.2944824019101500 28.9473279408920057
  0.3391385887921600 10.0868290103285609 17.3062468561209784
  0.1012623453160800  2.5324787730556300 24.9934688363949782
  5.8060034142047989 14.1152892088416593 21.2650694581043069
  2.9448745878064795  3.1446454179412999 30.2047439380523173
  8.7672916556564786  7.5617618677434404 19.0975593032251503
  9.0930049992948003 15.2047740090332102 26.7579168837597017
  3.5746445690263995 11.2179911589376395 22.8450877206914100
 10.7467997992198399  1.8944065131616101 28.8924598037500502
  5.3920561020728002  5.7038551121976200 17.4818242267418995
  5.4518919346391197 13.2931527820040589 25.1210107085731984
 10.7728719289555208  9.5310795841683085 21.2480860697956118
  5.3614172601132797  1.6862771609471199 28.5585185783527891
 10.9059461453108000  5.4833765747322101 17.7014215831241195
 11.0359932558958391 13.2228905681443205 25.0334006459017679
  5.4861996454760797  9.3402941014796692 20.9180093120118968
  5.7751598409596001  6.0171145595199800 25.4516811365871582
  0.3554063297375999  9.8740049036853694 28.6682760800810605
  0.2253607283209600  2.1345070355338098 21.3363154775932067
  5.8999358952089596 13.6711136854789714 17.8111754072175259
  0.4885017483042400  5.8263112622577795 25.1216084542564992
  5.8693079442331193  9.6535452558108901 28.8878755665871161
  5.8094660181564794  2.0642346857960101 21.2486967714580395
  0.5145487000264000 13.4629972334729189 17.4772557094075189
  8.2903525818851982  5.8855364263536396 21.3629696354557126
  2.9709970668480796  9.4718573379767399 25.0067325513237790
  2.6453637823157599  1.5132996481403500 17.4244879717632664
  8.6159891791941607 13.8440796802424906 28.9452198455143588
  8.1940243164527988  2.0687153581941700 25.1844172314410919
  2.8155710068371995  5.2484003530149792 28.8278650732518180
  3.0673284811491994 13.2886784061362100 21.1852974817358195
  8.4457948568536789 10.1089947934805906 17.5418352333493885
  2.8755139917840795  5.6279338533282903 21.2477146811058795
  8.3858480715479988  9.7294612931672795 25.1219822996130482
  8.2956104529442403  2.3122759007586700 17.5268917804257107
  2.9657584628492799 13.0451155599630599 28.8428076878206312
  2.7653144282030402  1.7591424525813599 25.0321401473684091
  8.3574854592383989  6.2791707759353299 28.9878375356110283
  8.4960385217714389 13.5982447080708901 21.3375722713543183
  2.9038778350595997  9.0782298992209984 17.3818580897846502
