Ba  O 
 1.0000000000000000
    10.9345130000000008    0.0000000000000000    0.0000000000000000
     0.0000000000000000   10.7843079999999993   -0.8595380000000000
     0.0000000000000000    0.0000000000000000   31.8397059999999996
 Ba  O  
  24  48
Cartesian
  2.7336272658938303 -0.1728714866522800 11.0618751541776010
  8.2008845313097414 -0.1728714866522800 11.0618741989864198
 -0.0000008747610400  7.5926489101679993 11.4566465095553998
  5.4672568280353913  7.5926504199711191 11.4566460708230196
  5.4672570467256509  1.1471915478079999 13.4115733662670991
 -0.0000007654159100  1.1471906850633600 13.4115737534271986
  5.4672573747610400  5.2680535756899998 15.1533700044013599
 -0.0000002186902600  5.2680540070623190 15.1533731539904402
  2.7336274845840904  4.4131297158515999 12.5601490369924385
  8.2008854060707801  4.4131311178116395 12.5601486068554387
  2.7336281406548704  8.5180073502590794 13.9377800849340403
  8.2008848593451305  8.5180083208467980 13.9377784155903193
  2.7336275939292203  1.9214769308502799 16.1133294612814808
  8.2008842032743505  1.9214774700656800 16.1133294183045805
  5.4672578121415611  9.4559288621116799 16.4692869893342007
 -0.0000009841061700  9.4559270287793193 16.4692868170585989
 -0.0000008747610400  2.7764370259635602 18.7065605949221805
  5.4672572654159106  2.7764373494928001 18.7065608875331009
  5.4672577027964300  7.3624196794576795 20.2047773710833383
 -0.0000001093451300  7.3624187088699591 20.2047774484417602
  2.7336290154159104  6.0423361548121992 17.8551527498516016
  8.2008845313097414  6.0423355077537195 17.8551524830268171
  2.7336279219646102 10.3812428708537983 18.9504903325978802
  8.2008854060707801 10.3812444884999984 18.9504886116818803
  2.7336279219646102  8.2364636860077596 11.0611719664910204
  8.2008846406548699  8.2364650879677992 11.0611705811628411
  0.0000002186902600  5.1020913794871596 12.3071608773115404
  5.4672572654159106  5.1020932128195193 12.3071642335577405
  5.4672557345840902  9.2280431693728389 13.6831007967762801
  0.0000015308318200  9.2280434929020796 13.6831010893872005
  0.0000009841061700  0.6612446979586000 10.7823821058321414
  5.4672542037522707  0.6612450214878399 10.7823833536342395
  2.7336259537522700  1.7405346837769600 13.0007098334394993
  8.2008870462477308  1.7405360857369998 13.0007046273466003
  2.7336267191681802  5.9393574447786799 14.8347599503918790
  8.2008855154159104  5.9393578761510000 14.8347630999809592
  2.7336316396990301  0.3900734889847600 13.6757554849242382
  8.2008816883363611  0.3900757536894399 13.6757521204506585
  5.4672575934512997  7.8139696554118387 14.2065600712348594
 -0.0000013121415600  7.8139694397256791 14.2065594516315006
 -0.0000010934513000 10.0715940058375200 10.5501970631592386
  5.4672565000000004 10.0715921725051594 10.5501937069130403
  5.4672559532743508  3.7602566605072396 12.9707364593178003
  0.0000005467256500  3.7602582781534402 12.9707401511518192
  2.7336287967256498  4.5107872326317597 15.2966765379504999
  8.2008836565487009  4.5107857228286399 15.2966731559181603
  2.7336284686902599  6.9068705585678787 11.7312319042431401
  8.2008848593451305  6.9068723919002402 11.7312308029304990
  2.7336286873805200 10.1599567432386397 16.2005189291100606
  8.2008843126194808 10.1599590079433195 16.2005171566217783
  5.4672544224425303  6.7992814490212803 17.5908688228604397
  0.0000027336282500  6.7992859784306399 17.5908713274280188
 -0.0000012027964300  0.2827216342141600 19.5353980102791596
  5.4672569373805198  0.2827228204880400 19.5353982341270402
  5.4672561719646104  2.6786656268909197 15.9699832672292992
 -0.0000003280353900  2.6786645484601199 15.9699846267713390
  2.7336291247610403  3.4291573755066400 18.2959557327283200
  8.2008840939292202  3.4291567284481594 18.2959529187270604
  2.7336291247610403  7.9023119026277593 19.8569240067344985
  8.2008846406548699  7.9023121183139189 19.8569109352642776
  2.7336266098230499  2.0874042937382797 18.9596836881648620
  8.2008850780353910  2.0874058035414000 18.9596851598148390
  0.0000003280353900  9.7374426538298398 19.3459942814037191
  5.4672561719646104  9.7374422224575188 19.3459917686087586
  5.4672566093451307  1.2501274441387600 16.4319511110631993
  0.0000006560707800  1.2501253951202400 16.4319490455959958
  0.0000000000000000  5.4488821561569996 18.2659993285679789
  5.4672574841061703  5.4488845287047596 18.2660090097784789
  2.7336265004779201  6.5283924653877996 20.4843311468140783
  8.2008879210087713  6.5283932202893595 20.4843371361905575
  2.7336277032743501  8.7459125625954002 16.7240341322872581
  8.2008857341061709  8.7459146116139195 16.7240317401956204
