Zr Pd  O 
 1.0000000000000000
     8.8920519999999996    0.0000000000000000    0.0000000000000000
     0.0000000000000000    8.8920519999999996    0.0000000000000000
     0.0000000000000000    0.0000000000000000   50.3010400000000004
 Zr  Pd  O  
  64  32  16
Cartesian
  6.0534273903131597  6.0295622787119196 31.8639835143280017
  2.8166293187801599  7.2202707304785196 34.9066743095328036
  2.8390933986682798  2.8351495068447199 31.8804339664495977
  4.4460099943064000  4.4141704904715597 34.2136688332863983
  4.4460403162037201  4.4334798481511193 29.5721650147959991
  6.6248415890571195  4.4421973491703595 36.6676533586848024
  2.7591367784484397  1.6463715195673199 35.0062210737135970
  7.2918870505249593  1.5884099234925999 25.6083379336223977
  0.0000229414941600  6.6246106624666803 33.4931089503383959
  0.0000156500115200  2.2534296865943202 33.3897478582943990
  6.0529624249140799  2.8351541307117598 31.8804309483872004
  2.2672273058416801  4.4422057076992401 36.6677036597248005
  6.0754233925839998  7.2202910932775994 34.9066672673871992
  4.4460441397860802  0.0201159557164800 32.7973520072040046
  4.4460108835116001  0.0259991151607200 36.9092960337720015
  6.1329103309229591  1.6463634278000001 35.0061752997672002
  1.6001823778969599  1.5883997865533199 25.6082966867696022
  7.2705451475992398  2.8295460024358801 28.7338171985215993
  7.2965842769939595  7.2858590395536398 25.5946932735119965
  0.0000155610910000  8.8849739266079997 27.9162567900376004
  0.0000074693236800  0.1855438689655200 35.8374090399544016
  2.2507612707096398  8.8852717214294792 30.3527119060064017
  7.2754756125921993  6.0636880180364798 28.7364278224975997
  2.8386222977533198  6.0295699258766398 31.8640011196920021
  4.4459916766792800  2.1987787793202398 27.1436267795128039
  4.4460599676386394  6.6883073653198393 27.1425417860800025
  1.5955168071330801  7.2858312074308795 25.5946173189416015
  6.6413010440706790  8.8852852373485192 30.3527179421311963
  1.6215282822460799  2.8295705444994002 28.7338156894904024
  0.0000096923366800  4.4452567485814800 26.4870744669544003
  0.0000032011387200  4.4405369363003997 31.0139940253560020
  1.6166047530536800  6.0636815268385202 28.7363885876864025
  6.0038021819089593  6.0899520274262802 19.2738379275608018
  2.8224290707766402  7.2678776209197595 22.4561649128159999
  2.8281977895116399  2.8743520743381596 19.3874725040144007
  4.4460424502961997  4.4666059429898404 21.6413866548544007
  4.4460200423251601  4.4748286902357997 16.9662123262088009
  6.6922679742011599  4.4485765072751597 24.0614647582200014
  2.8281471937357598  1.6237128815814399 22.4813093966911985
  8.8920112744018400  6.6441489904852400 20.8021988112120013
  0.0000158278525600  2.2583445015757602 20.8802117001688003
  6.0638631914608796  2.8743536749075198 19.3875057027007998
  2.1997141342701201  4.4485616575483196 24.0613862885975998
  6.0695882502205603  7.2678994064471594 22.4562282921264007
  4.4460513423482002  0.0162324409260000 20.2028654406847998
  4.4460087494191196  8.8873870516797595 24.7097345015320009
  6.0639026721717597  1.6237176832895199 22.4814079867296002
  7.2833577053260399  2.7886181100928797 16.3234938056712018
  0.0000008892052000  8.7128666595786388 15.2271730816736000
 -0.0000102258598000  8.8778658870007590 23.2805385971680003
  2.2994293386365601  8.8721378938639202 17.7413744910871998
  7.1885960852877595  6.1123307436151997 16.2154109550024010
  2.8882379916618803  6.0899814601184001 19.2738494968000005
  4.4459916766792800  1.9984222633715598 14.7562225525280013
  4.4460120394783598  6.6478876537486400 14.3854882944056008
  6.5926307531307602  8.8721376271023598 17.7413800242016002
  1.6086882480785998  2.7886094848024396 16.3234872665360022
  8.8920104741171588  4.5345540248247200 14.2846191158831992
  0.0000011559667600  4.4604298793527200 18.4197318014752014
  1.7034739655778000  6.1123238078146400 16.2154169911271993
  7.3686759661403203  1.8708864959127198 13.3604194965784000
  1.5233110329595598  1.8709191297435599 13.3603807647776005
  7.1841328976273999  7.3273192101293594 37.7713552572920008
  1.7079139449824401  7.3273149419443993 37.7713799048015986
  7.3723739038055598  8.8769239519323992 32.9819930407527977
  1.5196860990412400  8.8769040337359204 32.9819950527944030
  4.4460349809725193  2.8556736077479998 36.8975753884416022
  8.8920397289682391  3.0563828713995198 35.9266682354343985
  7.2139502599169196  4.4636688982142401 33.9508182337144007
  6.0668181092609998  8.8873283641365592 27.6240560366359986
  4.4460469852427194  1.6035974593880800 29.8403646269616019
  4.4460428059782791  6.0279130698274797 37.0469724953040043
  2.8568333091698399  4.4424967445611996 26.7568349203911993
  6.0352990749802400  4.4424849181320401 26.7570240523015990
  0.0000161835346400  7.2555350081411598 30.7394776085871975
  4.4460144403323998  7.2575960968742397 29.8551048437232005
  2.8252672359339996  8.8873181382767594 27.6240937624159990
  1.6781054747449200  4.4636660527576000 33.9508624986296041
  8.8920466647687988  5.9816702201630392 36.2344683473608029
  8.8920438193121605  1.5933037532313199 30.6781309632136008
  7.2743658845025996  0.0118379888276000 20.4718437129495996
  1.6176473461506800  0.0118282964909200 20.4717607162336002
  4.4460089272601602  2.8644087150301996 24.4586085713735990
  8.8920189215665602  2.8050753420934402 23.6182295991040014
  7.2778440995629197  4.4729017825673996 21.3627334805559990
  6.1739164733235601  8.7864475006734395 14.9527487158080010
  4.4460422724551600  1.7124369761527600 17.4656976293256001
  4.4459691797877197  6.0421716530505192 24.4446213611808005
  2.9559859134062396  4.2708901000594395 14.3221235713072002
  5.9360684874477991  4.2708790739149594 14.3221341345255997
  0.0000136048395600  7.3510590327179202 18.1702411581271974
  4.4460123062399193  7.3383962171467996 16.9687208390736011
  2.7181064496663998  8.7864715981343604 14.9526893605808002
  1.6142657876955999  4.4729335271930397 21.3625725172279992
  0.0000036457413200  6.0588530536819993 23.5370542837624015
  8.8920464869277591  1.4121163673021599 18.2937810153776006
  6.6925363363305204  8.8659228830390404 36.4103746053135993
  6.6776232980802792  4.4318046744748401 30.3075355359616019
  8.8920479096560801  2.2163224422341599 27.1756046596720005
  4.4460197755635997  2.2255295396365198 33.4533927581856005
  2.2144502206855599  4.4317957824228396 30.3075214516704037
  2.1995119290076399  8.8659334645809196 36.4104193732392005
  4.4460348031314796  6.6060466365857593 33.4191156174880035
  0.0000058687543200  6.6724083763438395 27.1705302907568012
  6.6767981156546794  8.8863013321305591 24.0247470110615993
  6.6385671826832793  4.4780345417433596 17.7814266941871999
  0.0000014227283200  2.2902643895606798 14.8810254688928012
  4.4460259110794800  2.2380670661949602 20.9241003635896021
  2.2534645434381599  4.4780474352187598 17.7814186460207999
  2.2152714016877599  8.8862675423329591 24.0247198484999984
  4.4460223542586794  6.6865803509804005 20.8768480696239997
  8.8920316372009207  6.6076887318285991 14.8705859910512004
