Ba Si  O 
 1.0000000000000000
    10.8642090000000007    0.0000000000000000    0.0000000000000000
     0.0000000000000000   22.6101300000000016    7.8216999999999999
     0.0000000000000000    0.0000000000000000   39.1084999999999994
 Ba  Si  O  
  72  24  16
Cartesian
  8.1471325810175710  0.6209069544885000 15.8610622675999995
  8.1478516830112806  7.6050094748304007 15.5805004697610006
  8.1484407404232613 15.7644828717261021 23.4510074084590023
  4.9642463567084700  1.5352533764469003 17.9600763154260008
  4.9473467536827007  8.9296610214936010 18.2003842817340029
  5.0375759649853205 16.3595312988374992 17.8789408045049996
  0.4673445921321000  1.5385460896788001 17.9624950197170001
  0.4846904968635901  8.9299237512042016 18.2004000815679987
  0.3945651473990100 16.3596893436462025 17.8788718953280004
  4.9324100959390504  2.4772592226369001 14.0381652583709986
  4.9442008046825707  9.6948031955820007 22.0675999896800015
  4.7866937840844601 17.3313225997830003 21.8881909191849999
  0.4996625719285800  2.4776295765663003 14.0374415946869995
  0.4884008415212701  9.6958570537412996 22.0670130493120027
  0.6454112591259901 17.3311111950675034 21.8883551748849996
  8.1508838837431803  3.1637504768112006 19.5859516629679966
  8.1482374710728713 10.6905711827846996 19.6192376894879992
  8.1482141130235206 18.1807150924800034 19.6569653465700007
  2.7122365225150200  4.4244804727488001 19.4346398596469996
  2.7159181856609402 11.8564883117829005 19.4259688794609957
  2.7160470351796802 20.3366210594529022 18.4350975424660000
 10.5465581066373915  5.1407341193459999 17.2568203853300020
 10.7060078650888801 12.3162741232836019 16.8662044526789998
 10.3830524130399304 20.3658157115115017 25.0337478012749983
  5.7516922645431299  5.1424588200624006 17.2535773520760003
  5.5900980198771304 12.3165784556334010 16.8661955359410030
  5.9128764939614706 20.3672062345065008 25.0331091594700013
 10.3497555680125508  5.9838197423808008 21.1437634374970003
 10.3756133632113610 13.5669665781090014 20.8988741450650011
 10.5509226939610503 21.4159569915408028 21.1086134998670012
  5.9474094686888712  5.9867586070782002 21.1461399046079990
  5.9208964530452706 13.5671189703852004 20.8984016361679998
  5.7452720602345799 21.4166332605291032 21.1095830777990017
  2.7159758746107303  7.4331752000460005 15.0228161537900000
  2.7156687434223001 14.3721209948532014 23.2247684121579994
  2.7173890909174503 22.0127158749867000 23.4198314419479985
  8.1469690746721213  0.5975072787489001 23.5101184200859983
  8.1471116130942001  8.2378984416111010 23.7051794162339995
  8.1479779251198607 15.1773457291017007 31.9071252608079980
  5.1189056508435007  1.1936443836198001 25.8205502813170007
  4.9435250508827702  9.0431019223374012 26.0314207321560005
  4.9171960749396302 16.6249143081930022 25.7858242016100014
  0.3134555704151700  1.1944431995127001 25.8220022234880027
  0.4889141753965200  9.0428093472552007 26.0319702847979997
  0.5148280299137700 16.6248087188859017 25.7854497768310011
  4.9507793005162508  2.2423162313003999 21.8984203730960019
  5.2739947330865702 10.2938764519347004 30.0633929635529995
  5.1135133093484404 17.4685215469269011 29.6749222885609996
  0.4809723299754300  2.2444942651233002 21.8954405400470016
  0.1580560977209700 10.2933842294046016 30.0640197163740019
  0.3185852153366100 17.4685271994594018 29.6745796981009988
  8.1482939649596702  2.2734919829496003 28.4945385129639988
  8.1476289667267814 10.7536385227989015 27.5041924813410006
  8.1484661626723209 18.1858347042159032 27.4954063657309966
  2.7160466006113202  4.4291822492823005 27.2733407156820036
  2.7165565665817799 11.9196356916572999 27.3113041188019992
  2.7158727732673205 19.4461843977668991 27.3438773538009983
 10.2187679729413503  5.2786880187306009 25.0424124458840005
 10.3758371659167601 12.9149437888158030 24.8629872626869997
 10.3644498452534108 20.1322435723569022 32.8929249293059982
  6.0774154824769209  5.2791418040397007 25.0417227283780015
  5.9204338550260509 12.9144798289482008 24.8636253569729995
  5.9317206817561505 20.1326270401617009 32.8925585608780011
 10.4696653637348103  6.2504413346577001 29.0511179355929983
 10.3795149179474411 13.6806754089933005 28.7300830639719997
 10.3964286444449119 21.0728093793672002 28.9682650140029985
  5.8265886003998704  6.2505661425753010 29.0514993999019993
  5.9166685374708310 13.6800757883457003 28.7299061371180002
  5.8993806476154003 21.0737341336842015 28.9689591898780030
  2.7167998162212901  6.8455383735485995 23.4792773787689981
  2.7160316080029001 15.0059410467873029 31.3498660542319989
  2.7171878857667702 21.9892302807531017 31.0689341335489999
  2.7160208524359901  0.1678196201016000 12.5305348516640009
  2.7162224921550302  7.6622533497617997 20.2477349060220000
  2.7162050007785399 15.2162172906990012 19.9232308757999981
  2.7162837662937900  3.8098788052134003 16.1239060377310004
  2.7160194400888202 10.5446822582766000 16.4033533997539998
  2.7160293265190103 18.6763908677349022 24.0295410915159984
  8.1471654995708391  3.8048240845506003 15.6788445810689989
  8.1482785377828915 11.4913154936724009 22.9095053294010000
  8.1483286217863800 19.0759340227623007 22.8727111139969992
  8.1478771052603403  7.3441534657035001 18.9546513838050004
  8.1481547944423802 15.0379346068386024 18.8881303282490016
  8.1483835946839207 22.4612918101346999 26.9712168374529995
  2.7163957762885804  0.1488637393122000 19.9590741289180009
  2.7159332869114499  7.5720744289659008 28.0420536372659974
  2.7161427488609702 15.2660536348398015 27.9755999265470017
  2.7162005464528498  3.5340318276939007 24.0577414486959960
  2.7157991139302999 11.1186967075503009 24.0205154754519974
  2.7160663734716999 18.8053384740365992 31.2516224517689949
  8.1478477718960409  3.9337470458106005 22.9005853845040015
  8.1481076437753206 12.0653150202603001 30.5267971671020000
  8.1483138464621412 18.8004673476294002 30.8061524677160001
  8.1482769081515407  7.3938328955421007 27.0068617322590008
  8.1481645722304794 14.9479607599218003 26.6826302882819988
  8.1483100439889906 22.4421401256195026 34.3995874788549969
  0.0109359127794000  0.0595614132564000 15.5734937909009989
  0.0297958536771300 15.0628206725244009 23.3525373677810038
  5.4212989577286006  0.0592141216596000 15.5732070473790003
  5.4024172884128703 15.0630515219517012 23.3523254779279981
  0.0367600289303100  3.7664612508783004 19.5776369612169994
 10.8282952929507896 11.3697568778546998 19.2820938702829991
  5.3955737058795901  3.7658491946592005 19.5780978939979988
  5.4680808935351406 11.3700263906043002 19.2824651663819999
 10.8534669047091601 22.5507591901395017 31.3561902115499969
 10.8344046722398506  7.5471135237498004 23.5780958761820010
  5.4428248668728401 22.5511293179676002 31.3565497750989977
  5.4618617857351808  7.5471811280385008 23.5776792924399992
  0.0358005019914300 11.2402394962770007 27.6477446889599996
 10.8275866205977209 18.8439837082326029 27.3522015198090003
  5.3961019237211705 11.2403317456074010 27.6483518875310033
  5.4687317682963306 18.8439391662765026 27.3519209554299998
