Ca Bi  O 
 1.0000000000000000
    14.2216760000000004    0.0000000000000000    0.0000000000000000
     2.4522409999999999   12.3008260000000007    0.0000000000000000
     0.0000000000000000    0.0000000000000000   35.5220879999999966
 Ca  Bi  O  
  16  32  64
Cartesian
  4.3863178961927005  7.1964011920674800 23.1702964088332770
  2.8084741307928298 10.7922353551953414 21.4817450752312809
  6.4028762384493909 11.2548187416522207 12.3517496751028784
 11.4970997054228601  7.1963775744815601 12.3516747234971991
 15.0916047898978505  7.6590730214632998 21.4818548384831978
  7.9806865118548496  7.6591197646021003 14.0401805888265585
  9.9192893604989614 10.7921867669326410 14.0401113207549599
 13.5137855392805903 11.2548831979804618 23.1704701118435956
 10.3208914321834211  1.6346191266124401 17.4444629816637580
  8.7733506989216199  4.5612902004642004 15.9268037955583175
 12.2377088935175795  4.5158942481277204 18.0774310677357555
  3.2101060905366001  1.6345608206972002 18.0774232528763967
  6.6745182033692405  1.5890822068100001 15.9269906417411971
 13.7853094330651018  1.5890494866128402 19.5950131709102386
  1.6624960992988400  4.5613175082979209 19.5951502861699183
  5.1268632952324698  4.5157890760654196 17.4445496555584789
  7.4430992813293706  8.1299156745296202 22.2036967021850380
 13.3655998573793209  4.7543897970948006 21.8911833181456785
  9.1931121363322301  1.3960388249542199 13.6308215601683980
  4.1400083378143897  7.3953529066675801 15.2688462757992003
  5.7471019150830100  0.4017396878048200 23.0360300206108768
  2.5898502784008199  5.7486766334182002 12.4861204982639986
 10.4570868115215898 10.3213695765761404 22.2036750337113560
  3.3461868381824198 10.3213069653718019 13.3183635905863191
 14.5538455367660706  8.1299134603809406 13.3184918253239974
  3.3992141555507596 11.1420586688176009 17.6029426459504776
  6.6491306902259604 11.0558638288373601 20.2532825746020002
 14.1020756002452199 10.9116983941338805 19.6820302090003167
 13.7600079177936703 11.0558779747872613 15.2688135954782389
 10.9088030685259998  7.5395821826580001 15.8401270590712784
  7.3899627562424506  7.3091661852325007 17.9191748373825561
 11.2508380549505915  7.3953548747997404 20.2532307123535205
 13.7292997837489601  1.4563833560871999 15.8758118382343181
  6.9911795015129190 10.9116587854741596 15.8400208480281570
  3.7980153676779400  7.5395041954211601 19.6819580991616760
  9.8800968717228610  1.2479072349235600 21.2245417135331991
 14.5007793854442895  7.3092173566686611 17.6028659182403970
 10.5099987598069404 11.1420205362570002 17.9191663120814368
  1.7184489614545999  4.6940626101264806 15.8758633452619193
  8.8293115307284502  4.6940681454981803 19.6461894878709558
  6.6184904361167298  1.4562831043553000 19.6463397463031981
  9.7007435910833308  5.7486858590377006 23.0359937880811181
 12.6785305769141701  4.9025395923479405 14.2976663511242368
  6.2547255923037897  4.7544004988134203 13.6309135623763193
  5.5677959096845600  4.9025414374718403 21.2244823916462373
  2.0822672954390100  1.3960508797637001 21.8911897121215198
 12.8579425281541315  0.4016978649964200 12.4860874627221587
  2.7691086010499899  1.2478261724802202 14.2976031218075992
 11.6518030422784697  5.0223803896529402 12.5729947375603182
  7.6604463634897098  0.3461357720039800 22.1667888975321574
 12.2600331521462600 11.3719997313512398 20.9920912084161593
  9.1022725462830518  2.2656813914196201 15.5485663786387196
  7.2109499151083307  0.7867393045145000 13.7740910215943977
  2.5722220641363203  7.8048121008369611 12.7046818669730399
  1.1260796359776102  5.3637575871188208 21.7478214992908754
 10.2072383662094914  8.3151611937592200 13.9132331716156781
 13.4564070282467210  3.8848193134697602 19.9734342370247973
  9.6829587763630887  7.8048112397791405 22.8174491147534368
 12.9336559186595199  6.8792315281365610 21.5429322270321606
 10.9068557585045802  1.1281045701791601 22.9491941451695993
  5.8229048812867807  6.8792061884350009 13.9792722854164797
  4.9663733776225101 11.5720462194653404 21.5429595790399198
 12.3379458375307287  6.8834459141324214 18.4818624723465597
 13.3873130127092299  8.0231688604851001 11.6721076967241597
 15.7912342126090195 11.6753695906258006 16.3130486015548790
 12.6729045726462104 11.5677485568774596 17.0401658505455984
 12.0771779321615007 11.5720460964570808 13.9792165157383188
 16.4090467751034517 11.2495424253477800 19.3416405111820779
  6.2765027744175397  8.0231697215429207 23.8501437048806366
 14.8981601299744195  5.8042965402928406 13.3553236127085579
 10.6521466732386116  5.3843845962217003 21.0953389989551958
 14.8036527191504295 10.1360974875623793 21.6088963892272758
  4.5126826621981202 10.4281428373965603 11.6719915394963998
 11.6235514846204300 10.4281761726350215 23.8501397974509572
 12.7507653553510494  7.0792775242176207 14.5301974913810383
 11.9065313597769595  0.7660270506874400 14.4266939418083986
  8.6017903525460113  7.2017858786489803 16.1805043241587185
  8.2170165362981802 10.6464610954593208 22.8173414828267944
 15.3278284752819403 10.6464059877588397 12.7048577013086383
  9.2196260523773788  6.7759663398830803 19.2090486341879974
  5.5619671097632599 11.5677796779672413 18.4818820094949601
  2.1087541361389701  6.7759667089078608 16.3129050923193581
  3.5413525358722597  5.3844398269304401 14.4267145446194398
  3.0964823643510000  8.3150488872178396 21.6088598014766404
  1.4909972979598700  7.2017866166985414 19.3415268405004781
  8.1590131361172507  0.9447601436078600 18.0854864116315177
  9.2982344461674096 11.2494607478631412 16.1804425157255984
  1.9914478688791202  2.2655927024641604 19.9734427623259165
  7.6927428759573004 10.1361401714286004 13.9131358410945580
  1.0481258665099902  0.9448218937543801 17.4365422664815171
  4.4354816026381698  0.7507726733565800 15.7650340754810383
  5.2270809417611996  6.8833331155580009 17.0401633639994401
 11.5463502381217911  0.7507743954722200 19.7570198233144758
 11.0123012537934599  5.3996096975866807 15.7651161315043193
  3.7960466263258903  1.1279868512743401 12.5730384297285589
  5.4312682447081411  2.3150171753156399 18.1646196775108812
  7.7873206333804195  5.8042497971540401 22.1669721915062397
  4.5410411140867799  5.0224102806601207 22.9492058674586374
  3.9015344403940304  5.3995965357028606 19.7569217823515970
  8.2369268837950909  5.3636941148566608 13.7740924424779188
 12.5421214776459120  2.3150728980574202 17.3575461158618367
  8.6803388732783500 11.6752909883476601 19.2090589355935180
  5.1490965896920802 11.3719276485108800 14.5301356829479182
  6.3455713374778799  3.8847888074212800 15.5486665509268800
 10.0165058818777108  3.8353285391661398 18.1645280305238366
  2.9056015889323903  3.8353113180097402 17.3575791514036766
  4.7956320881488201  0.7659879340607600 21.0954341981510396
  5.6400848083803599  7.0792483712600003 20.9919238993816784
 14.3217612662151517  0.7867169170111800 21.7480150946704782
 14.3996266198616407  5.2055914752704009 17.4366154419827986
  7.2887991532085605  5.2055644134532004 18.0854459164511994
  0.5496698047920200  0.3460687325022800 13.3551833004609595
