 K Zr  O 
 1.0000000000000000
    13.3150849999999998    0.0000000000000000   -1.0638339999999999
    -1.9877670000000001   14.9509450000000008    1.0610250000000001
     0.0000000000000000    0.0000000000000000   34.7124740000000003
 K   Zr  O  
  48  12  46
Cartesian
  4.8054764542988995  7.9370799366860005 19.4560584902127189
 11.4822156603844689  8.0141691022383004 18.9513431611414411
  2.0127959752404196 13.0135101966260507 16.4073999157133485
  8.6781091949836906 13.0834520629211006 15.7717950932287785
  1.5743347942814803  3.2270166035929502 11.8533394764150302
  8.1698558397706407  3.2477478829488504 11.2970877427584302
  3.5435956161797799 11.8339609227006992 19.4672354591253765
 10.2091610037985507 11.9042384377110011 18.8324617604197613
  2.7269132477147200  1.9533056800198003 15.2274236177008806
  9.4033527719202201  2.0302282920448000 14.7221535913547594
 -0.6809218132760000  6.7406178547577511 23.3885281671022511
  6.0387450095689994  6.7188634822355002 22.8819409224670807
  0.9374969283495501  7.0771269968925008 18.0730526554860411
  7.5339788468414186  7.0319196749865505 17.4268546505681918
  4.9710714199390891 12.3817623514251007 14.4477418282521821
 11.1241177641474600 12.2250718130321498 13.4938306416768299
  3.8616513322219497  2.3986384150354998 21.5393521443321987
 10.1353437431537508  2.0188320837279998 20.8587563746929199
  1.0974526665835598 12.6940739871151518 21.7458667944435504
  7.2513771650397398 12.5369606359976000 20.7928339636288193
 -0.0432987788120601  2.8903784348028503 17.1698150021385310
  6.6744427047317609  2.9356086316546501 16.7522245805844108
  4.0735688769818799  7.9480802439791995 13.3193008828191015
 10.3471421837003597  7.5691427120856511 12.6398035710513899
  0.1348351534145700  8.7541616397297997 15.1201102360356003
  6.8844841324553903  8.8718104764253507 14.6134449228107108
  4.6147073068323703 13.8320976093408010 23.1000781740122996
  9.3040774512221294 13.9038003979379514 22.4781456822261525
  2.9830045980744799  3.9092835424394501 18.4855185882165287
  9.7639655234780101  3.8639853187879001 18.0058728007640418
  2.9178425076197700 11.0144970855900493 12.7622446417889712
  7.6070771915917801 11.0856033314817015 12.1396427112302998
  0.7593220445720401  1.2118851777713500 20.1224685646746124
  7.3250719508747899  1.0952775248856002 19.5659902237507168
  4.4449439765392498  6.1031297437335006 16.1726110597989390
 11.2257437633751902  6.0579058262786001 15.6932329077324813
  0.1056299852619902 10.8030472160400990 18.5354670256248397
  6.7515981269540699 10.6995337502948011 17.9019473560020010
  5.9653655060708299  0.8907744624204500 13.4660127898510709
 12.6366376705960093  0.8723273884416500 13.0244041138998305
  2.8897509703672695  5.7857501862168004 21.9042540711966787
  9.5406658366184196  5.6629767636130506 21.3232555027503885
  1.5721043522833198  9.0951650359315508 21.1547750891929489
  8.2441414976898599  9.0771413727151504 20.7125542699954472
 -1.1989500362085099 14.1151943509536011 17.7678186583913806
  5.4708435366272194 14.2188366938447999 17.3383119645203791
  4.6687094625941699  4.3052246345720508 12.8550612651482492
 11.3190731013306287  4.1813354229429498 12.2743042624211913
  3.6066982163108303  9.7723422245717018 16.7164900717256977
 10.3821899846197105  9.7717204147691508 16.0098269346562496
  0.8831446244697598 14.6403319411714019 13.5729608018397805
  7.4856769402874894 14.8594800523018513 13.0194792120231497
 -0.1564718176844200  4.7973838788372003 20.6514497333812379
  6.4680569286474503  4.8531193571932505 20.0645911564137336
  4.7357330436662801 10.0587223432159494 22.2206767505592317
 11.3375507925957706 10.2775986461663003 21.6654207350035612
  3.8271825327290601  0.1955915516979000 18.1686363269664390
 10.6028831348722505  0.1946448578605000 17.4621587124376418
  1.0499901824161000  5.1697183258715000 14.5910334374362396
  7.7401025553812897  5.1146394930198502 14.1140581251524306
  4.3083723118844199 11.6375493116695505 16.9317616164612907
 11.0309711989577295 11.6436608094572005 16.2194430393132407
  3.4243310790098400  1.5504575503161000 12.6030343489093610
 10.2119093968622803  1.6958858408594502 12.0696224169124093
  0.5064339874892800  6.6651344206984504 20.9474456102406101
  7.2175810665661793  6.6737469125657007 20.3823952636075596
  3.9975438268671297  8.2713899443207008 22.1088093029431434
 10.7844191771469795  8.4160986458812008 21.5758016692829777
  1.1913268399287702 13.2745290272667997 19.0203708024063047
  7.9137241277922499 13.2798614313105006 18.3080636675390593
  0.3880528121555900  3.3015309173973502 14.2954614527005894
  6.9909944609044601  3.2941906014401501 13.7961197846040502
 -0.8051476486239203 10.5724457839829515 21.2069399097834292
  5.7865759145494300 10.2926096939652005 20.6089922680728392
  5.1328203001295503  0.5757369704380000 16.7088658243568595
 11.7177981122651200  0.5469771831265500 15.8328570555838297
  2.4010023634071196  5.4290864226747999 13.1713173808939406
  9.0179589767800312  5.3730543175699506 12.6075485169626891
  2.4921267861342500  9.4208139611277506 18.3459544278937123
  9.0757988962577301  9.3908726006329513 17.4690438721933532
 -0.2875039618018300 14.3457485380245515 15.0964547483052112
  6.4337694342469902 14.6260210461268514 14.6306400598081900
  5.1910550927845902  4.5947203806448504 21.5721737469813100
 11.8075300466522393  4.5385945331148498 21.0072015981039115
  5.2013821220931895  8.5911969372676005 16.8536659806796010
 11.9765565644019389  8.6145570412828505 16.3313479782772717
  2.4458581074076795 13.5585083231629504 13.8409995295489914
  8.8725090290794402 13.5271527527806015 13.1104018281997412
  1.4891605547446101  3.6552925530053999 20.7781929808748380
  8.0503635581913180  3.6648472534265504 20.0717344552587917
  3.3485167124536406 11.3902702499743498 22.1290095343226305
  9.7751869009539192 11.3608118050030509 21.3990301884818095
  2.2330378559060802  1.3523467643857001 17.8467261460776037
  9.0075068538702503  1.3758151132427501 17.3248973076615904
 -0.5958617662733100  6.3117616591698500 14.4636539784278693
  6.1582429110895989  6.3032541229365009 14.1072031701932197
  2.5444836244953901  9.5586867916153491 15.0526893814876690
  9.6789818933543916  9.6221625237073507 14.1443971376331898
  6.8022509536870803 14.6018861841416996 22.2209084425282413
  5.5164416777906000  4.8618611747347504 18.3164677619596112
 12.3141254507020488  4.7672643030780000 17.7898413499489791
  5.4180436174909001 10.3155801763537518 13.0198701850395686
  4.5298540646859298  0.3455247114792000 20.0340042440701218
 11.6655708647951695  0.4094636238473000 19.1259449394179164
  1.8945524933213997  5.2006159488085002 16.3888370109077606
  8.6913622987423906  5.1053818678758507 15.8617139973300905
