Rb Sb  O 
 1.0000000000000000
     8.8621529999999993    0.0000000000000000    0.0000000000000000
     0.0000000000000000    8.8621529999999993    0.0000000000000000
     0.0000000000000000    0.0000000000000000   44.3107650000000035
 Rb  Sb  O  
  24   8  22
Cartesian
  0.2297608876502400  0.2037834358044000 20.0453366606661021
  2.4954261336641399  6.4195339546600190 21.8569162646512538
  6.3875138437911296  6.9729551151796496 21.8871348770583012
  2.2296000940296898  2.6985321464932199 13.5481905400564511
  6.3694554346230294  1.7373066972859199 13.6196722230468001
  8.6382544265592589  4.8032651251036196 15.3479830374439512
  4.2875468424426000  8.2912091474611191 15.7297681335451518
  1.9677723919642498  2.5164944844771600 17.4007093573891538
  6.8630512133716790  2.0205695546770497 17.4323507884603508
  2.0178548999700898  6.3049938175100992 17.9011117127494508
  6.9854406480552287  6.9671535067181996 18.0310707554179537
  4.6116199143987293  4.3545096249967195 19.7693501626171511
  0.2240520659307000  0.3721950944753100 28.9624797631387523
  2.4929897505613798  6.1680457264996802 30.6906634056403540
  6.6328125670532101  7.1292949262770193 30.7617409744539039
  2.4743733802403995  2.5418771086136394 22.4237568517295998
  6.3664900696076998  1.9883499567441298 22.4539519794311992
  8.6322102609701989  4.6347451709230496 24.2655865287649526
  4.2504826599506993  8.7858361263328497 24.5417028573553537
  1.8767456736400498  2.5360253403662094 26.2795639709329549
  6.8443717445213395  1.8739423974030898 26.4098376200329525
  1.9994506895919300  6.4514887514612989 26.8784496601516523
  6.8942677928280593  6.9474373432099190 26.9102647894216531
  4.5748204444169396  3.8598195475956301 28.5809051431713002
  8.7952989560631902  4.3964824654137891 20.0005393634664017
  0.0511301917335000 -0.0114520285927200 15.3614446478509521
  4.4923315242929398  4.1982615371828995 15.5641243024992004
  4.3966190311915199  0.1739972964637500 19.8184119278404509
  8.8110939713550884  4.4195354953911599 28.9493385195627013
  0.0666730787725500  8.8275602061152085 24.3103621136898020
  4.4654847838593295  4.6050918752558703 24.4924523282731492
  4.3700975317730100 -0.2329383239868600 28.7467629952122010
  1.8625438962144898  4.0146158375049898 20.0114708291919001
  8.8186644655553401  6.3316006594619996 20.3690520561271526
  3.9800922570351296  0.1160061144991800 21.7424575706874030
 -0.0355881022882200  1.9368556191438600 14.9603267649802500
  6.9822499184891091  8.5091823081630000 15.4961374095444029
  2.5619304770435698  4.7226361936512600 15.4277277918915026
  4.2718366379549098  2.1783026734690796 15.3812732720808008
  0.5153673414022200 -0.0120361330969500 17.2734080744053529
  8.4645674826935693  4.4167379795536501 18.0589821062914488
  4.3775376637026300  7.1170431769975790 19.3774245479457008
  6.3416550379050891  0.4963629860229000 19.8814448772682510
  1.8800685379073998  4.0777857071966395 28.8143475464208016
  0.0355707324683400  6.3677807535706199 29.3503841758864503
  4.8818573565535202  4.5471375598477790 22.5684106733950500
  0.0432434072926800  1.9007500557419699 23.9418587262896985
  6.9994128070965598  8.4456786897893696 24.2994244444572018
  2.5203568766191498  4.9274393087798405 24.4294375462590025
  4.4844708832034694  2.6861474649187795 24.9335327607744013
  0.3975543225278699  8.8477891337960699 26.2518927844057508
  8.3465612688838196  4.4188564772282994 27.0372758368947039
  4.5906374378482795  6.6094443102936289 28.9292196598221025
  6.3002943950172599  0.2915275240358700 28.8832317323668519
