 K Bi  O 
 1.0000000000000000
     9.3325549999999993    0.0000000000000000   -2.8026540000000000
    -7.5149520000000001   17.6977839999999986    0.6208410000000000
     0.0000000000000000    0.0000000000000000   34.9464060000000032
 K   Bi  O  
  32  16  34
Cartesian
 -1.0957490790886499  2.7513912988951996 13.3635195593232030
  4.2994713675570102 11.5828929254032804 13.7045841654395719
 -2.4192574906373698  6.1037747425106392 13.4779209456401112
 -6.0939310703024603 15.1430191518351176 16.4971191012251133
  3.2799706221682601  5.4894591750616799 10.5911359446879914
 -0.2494408313365701 14.5290640882462387 13.6995035902123199
  2.2130092848635097  3.1571567106216798 13.5040406742750321
 -1.5887077634990403 12.0406894681340777 16.4360500931215192
  6.3561779312142894  0.3942558348799199 13.0861507924134894
  2.6794908104358295  9.2877343930446390 10.4272607072415031
 -0.7995578866565403  8.4811129348732788 16.3539700270104618
 -4.4396329615910508 17.4614619506911986 13.4997162447762609
  5.7207426651189000  3.8639952309555996 13.6136067034547104
  2.2069117568451890 12.8570123205607203 10.9020317825366124
  0.0586735966290499  4.8681382937719997 16.3307120797750223
 -3.7675036162796500 13.7079734528099983 13.6426256088243321
  7.9130470537721198  2.5368161095877597 16.2669803080670725
  4.2256159322738283 11.5964359776314403 19.2838085529817533
 -2.4839934043731402  6.1146192366344794 19.0580581404196501
  2.9250943936840379 14.9261841324887179 19.3881397200788079
  3.3986122792509597  5.6546440966932794 16.3298285217841226
 -0.3863845765806904 14.5494609612840780 19.2539731764920106
  2.0506724733275998  3.1551520826279997 19.0741630802835616
 -1.5019403530181004 12.2247814633463978 22.1661834765107422
  6.2506482324942292  0.2392228930842400 19.2631255188883550
  2.6103226248711597  9.2155904384356777 16.4108170146162600
 -0.8627762894363404  8.4106173518660796 22.3360918105639819
 -4.5410973045134604 17.3146009606575184 19.6703886820649139
  5.5534290306950691  4.0154022507653595 19.1219427393465367
  1.7537487750443592 12.8295363339228796 16.4358085172085602
 -0.3843523333781200  4.8372876936810396 21.8513075338114540
 -3.9087756070141100 13.8358395882543199 19.1541376686772509
  1.2905671973791195  6.7913439156253599 13.3769989620263114
 -2.3738572790405099 15.5579720141695184 16.3898093341849496
  4.7941881555839894  2.3684374458555197 10.2489540089976607
  0.2812698353855598 10.8289567083328784 13.1645483932853722
  4.8848558040948804  7.6835506183758389 13.1685161179738817
  1.4176192755586392 16.7224508058015182 10.4697681326090706
  0.5819741653658498  1.1497383073383998 16.2757221882063625
 -3.2450937089609102 10.0591138999811189 13.5547786678332010
  1.5365191525279300  6.8747610046866390 19.6002454100582106
 -2.9419318011715108 15.3871043340955200 22.5029981656969227
  4.1946542458668405  2.1346205178719200 16.3807981240754117
  0.5169145561440605 10.9061756794816791 19.3887984865630507
  5.0627350423221893  7.6465201290899190 19.2098218774755054
  1.2448340391592199 16.5536645621037586 16.4698890727329932
  0.4033216605773199  0.9094066480865599 22.3985990139093616
 -3.0729762986693299 10.0160323613677580 19.5945551695931712
  1.2937042539544401  7.1348143665167196 15.4057148396361292
 -2.4608109431770000 15.8235276170451993 14.1913602824049310
  4.2994762187625000  1.7493029488012000 14.1936060521217904
  0.0953384636376295  5.0909765784290402 13.3674489730728894
 -3.6383933646757707 13.8369674680286394 16.4202396640261199
  1.5972496449697102 12.4464837272484790 13.4877616407482996
  6.5643577075346595  6.4724401126600801 13.3357387793967916
 -6.4594697587180905 15.3386316965200784 13.7739774254505321
  8.2548329429071678  2.4223309146701597 13.3767972361567509
  4.3468760466226009 11.2155007338347978 10.7999921993933725
  4.7054920501618085  7.7623369052756797 11.0426265087133810
  1.1945754672394395 16.7802119483315195 14.3237910238399238
  0.5486301797706399  0.7592611263203199 13.2005428897924197
 -3.1424412815814700  9.7204089313874391 15.6313292893094715
  2.2059257537123900  3.0593739763319197 16.3528498123157107
 -1.6727513634056104 11.7311624820655194 13.6004918807438102
  3.2578044313421688  5.8985606190721596 13.2119919860917800
 -2.4803326971744806 15.9511771316133597 18.5647147684755325
  4.2782109697612896  1.8801830168607199 18.5854645633397126
  0.5147664781130690 10.5640937967229576 17.3595307452242729
  0.2214915604294596  5.2593959470644798 19.2658415695843210
  5.4554163334262302  3.8608009579214397 16.3518795915022785
  1.7174429792444501 12.6011018329871991 19.3960221061743034
 -2.5323123834627097  6.4856481458371196 21.9669494659426832
 -6.4337149533719398 15.2743878557108790 19.3769177132609443
 -0.9462067700120800  2.3394955517689597 21.7636526582932817
 -4.7515285086697698 11.2267195360902381 19.4256822921054635
  4.9592598507352292  7.9827688222422388 17.1323772442696232
  1.2629214484683393 16.9132196439835170 19.5746403882087030
  0.6261834854456400  0.9032060524843200 18.4207022041984239
 -2.8899692168831503  9.9440167156927988 21.7222840717598444
 -1.4469182073940208 11.8092350173366398 19.5576077026863615
  3.4902111132930900  5.9729079477891194 19.1640208237216818
 -0.3942070861493301 14.6331444019945582 16.4169094915830058
