Ba Bi  O 
 1.0000000000000000
    10.6933059999999998    0.0000000000000000   -1.0753850000000000
    -0.9470090000000000   11.6124369999999999   -1.4560329999999999
     0.0000000000000000    0.0000000000000000   40.3225819999999970
 Ba  Bi  O  
  22  22  59
Cartesian
  6.2913269961679994  2.0507556774537803 12.1900256691807680
  9.0823019636406102  7.7279450223400499 11.2955874397564777
  2.4320833533016399  6.6210190770293993 13.0305188442660391
  6.8749764403926203 10.3279138108180799 12.8763954768057296
  0.5111276713614401  9.6900619230535003 14.9142200329462895
  3.7241180911091099  2.9740567112195699 15.0287277442305882
  8.1838798281716389  2.5241989144210999 15.8427491083325673
  1.6945110265518699  6.1569964295783297 16.9792719058607702
  6.0188125346246792  5.3969037851214798 17.7992004441387408
  8.6890327597945607 10.7183406646673607 16.6612488881100802
  2.1736509864821900  9.9557086124873511 18.5862396022345564
  7.5415857352769589  2.1310391896482401 19.9553875132625578
  1.0224574400378899  1.3633603723480301 21.8694880533526081
  3.6867249308145702  6.6782854617217904 20.7336417248997087
  8.0128130686047108  5.9167820222938099 21.5475802619195100
  1.5259727842522501  9.5551171602832312 22.6964622482004685
  5.9814215739744299  9.0939540754434098 23.5062908942017685
  9.2001761002355114  2.3823036436088501 23.6165871893820096
  2.8290422101196100  1.7371034057106698 25.6515389291448486
  7.2776565390219794  5.4461616526368202 25.4942866648821358
  0.6234255176646499  4.3419822809254098 27.2382869342323382
  3.4267512509288096 10.0412174890830705 26.3349656277837703
  4.7977804807367503  8.3062271985332892 10.8805898472018896
 10.5213557653919203  0.7397561319118600 13.2284860945210490
  3.0145089805013998 11.1505743819553000 12.5841441298416310
  5.9262069477857198  5.6529891423026406 13.4708620952155016
 -0.2856032166631500  4.8301754031213902 14.2088567679543694
  4.7165832550360900  8.3505425806126894 15.6260780836942601
  8.8133484701217206  7.3076968496529195 15.5063514915611993
  1.1721194836857900  1.6657798176566700 17.6211525984882016
  5.3619945268170390  0.4276370502258600 17.6881131414879462
 10.2831379957529396  4.1944596231429596 18.3782948615780697
  3.6387954341400004  3.1876443810849397 19.6377912703822695
  6.0725510238006990  8.8870772329203405 18.8989622447472208
 -0.5683715820044900  7.8869936044668494 20.1544223206299087
  5.2917763003505600  0.0386387583763200 22.3270032778266767
  8.5384763301478213 10.4112151631400991 20.9094969072629340
  0.8952286515655100  4.7684708611319699 23.0310683938961667
  4.9897984760204999  3.7276542874135798 22.8992584499707981
  9.9919188252890496  7.2453470045394095 24.3203444949734582
  3.7810916200776696  6.4170086484554103 25.0604956707535855
  6.6962825959038001  0.9100279021504201 25.9517158619101060
 -0.8194448406885900 11.3327072114700300 25.3096361368572111
  4.9086016053631294  3.7617127522639895 27.6387329698683892
  6.7916110176799203  8.5224488013589994 10.6103350602508186
  4.6118967716645995 10.3946994907412193 11.2387734936435102
  2.1030111748747897  9.2978759011230903 12.5109071263600704
  0.0545039130244300  5.7199756012615097 12.3488595101136003
  7.8681458016266301  6.1462221782809898 13.0907453375895795
  4.5074805592396903  4.8770675849710896 12.2373558638128799
  4.0424754340648601  1.3042908084382800 12.9619831248600885
  9.4146000314257492 10.2964377197077290 11.7709842590317280
  8.4051026126121684  1.1457124138856101 13.2597601837639782
  5.1175355470274893  7.7433972277584706 13.0033914817993281
  1.7987772686278898  4.6844523247008301 14.7235141691765286
 -0.2329010925871801  6.8259760353432597 15.0411579398062596
  6.3091995294607202  3.7075122831883403 14.2666859350871498
  4.6161038239098797 11.5495928134434003 13.8988444009017584
  2.4773285639485700  0.4480000391272100 15.3274596120724578
 10.2788704499494798  0.7595460470472600 15.4184593646165062
  8.5571154062265986  9.1252966235282607 14.5364505379382472
  5.0882194291791194  6.1880521504692805 15.3836494626942191
  2.6650970152467499  8.0815130721563708 15.4306843062674091
 -0.0972296532793800  3.8499762150404799 17.2791445993986912
  7.4656284731404297  0.6144626977810300 17.6815403503053012
  5.0738316846061799  2.5411082484342802 17.5528587915517491
  0.5607551323014598 11.3686626840287612 17.0994336559469460
 -0.2109349689693000  8.1221964323152793 17.7516041598640690
  7.1791196667255406  8.1668671549668801 17.1465398719457696
  4.2949228610102397  8.2397551705335204 17.8365826862683150
  3.4821144391093997  5.0248568643070595 18.6286680160923481
 -0.0515030959686200  2.0321562693596200 19.4477533089010350
  8.1979410368617582  4.0340407734501600 18.1851165502021175
  5.3245941803957102  0.2467541834298100 20.0029767293425067
  1.5164201439367897  8.0493027266545099 20.3539892724414955
  9.7680847430027491 10.0491692214431900 19.0853588700794354
  6.2232912169957091  7.0481880299197908 19.9051992692918596
  5.4177338596684503  3.8441882280665700 20.6920486826547574
  2.5495497992703702  3.9108117983691897 21.4012042954034492
  9.9218967423822111  3.9573052091323100 20.7809051372556688
  9.1524378578365315  0.7098679254368899 21.4287434732786188
  4.6315053542340197  9.5377292777412794 20.9799359291819130
  2.2408070223193102 11.4650588009338303 20.8653811625414605
  9.8036694736628309  8.2343058022225293 21.2512219864144072
  7.0436762699654896  3.9895743135653898 23.0923751615777668
  4.6221113519935795  5.8908696819988995 23.1467705038133396
  1.1447071601797199  2.9479118899359200 24.0001217600531191
 -0.5771146259136000 11.3255057586644803 23.1191447942201371
  8.1651321885133310  0.0092896012268900 24.6463801355652592
  5.0794094533377905  0.4547340913435101 24.6655854540751989
  3.3994697481284106  8.3645908423978099 24.2724862065852207
  9.9380653941039494  5.2458744036137697 23.4922847135667467
  7.9081139391097404  7.3860338851574401 23.8048185104745897
  4.5910681271502005  4.3214790137850994 25.5176651741401663
  1.2949040521958297 10.9237271670258504 25.2788220031105269
  0.2915204402283000  1.7764620190566200 26.7690422247121766
  5.6960920619700488 10.7667455986850502 25.5900614607623993
  5.2031794204670589  7.1829363102560198 26.2965029441552183
  1.8390637972115700  5.9214599764148899 25.4324089399424551
  9.6545522533241588  6.3581316187511199 26.1819087514680788
  7.6013442278828904  2.7699379386083698 26.0154157890289000
  5.0956197993447292  1.6694519024848098 27.2848635120221594
  2.9147536203439697  3.5400654704987700 27.9084046339635385
