Cs Zr  O 
 1.0000000000000000
    13.9058189999999993    0.0000000000000000    0.0000000000000000
     0.6665060000000000   19.4172870000000017   -6.0243820000000001
     0.0000000000000000    0.0000000000000000   36.1462920000000025
 Cs  Zr  O  
  48  24  72
Cartesian
  2.0650965887896202 13.4025648781356015  8.6028503891257202
 10.7053286332468094  1.3672453517063401 15.5820351259664029
  6.3356360429025402  7.6320502855856711 15.2938862239345017
  8.3766646768052606 11.5579907678129725 12.2891507581224211
  3.4635016209173299 17.6466045986643927  6.7181645908559000
 12.6077999004475796  5.5675579244297397 11.6293902621733221
  0.9417752234372699 15.9125600936504714 12.4456525151813402
  9.3929874971036185  3.3410941278617399 12.3713961633807994
  5.1232544200826400  9.6189975752055297 12.3894179214023410
  8.4169562066172894  8.5301293236119111  9.5011625561962205
  4.9561151872361098 16.1583631414377322  9.7569449237387431
 13.7518276388370495  3.4973679487494005 15.3712856163120826
  9.0186047207012887 13.4222775020708713  8.6384782830546207
  3.7546927957209797  1.3939241215257303 15.5800617191546582
 13.2831335112318278  7.6500124410978909 15.3166201933126214
  1.4265179499322900 11.5618181092535419 12.2932764356474813
 10.4224027678947788 17.6308468877452817  6.7384616374712012
  5.6595083102284693  5.5692491701274403 11.6171270301741192
 12.0699539350935812  9.6285848606617801 12.3930520093562002
  7.8596217516286693 15.9369480119496014 12.4171796592662016
  2.4481626036944397  3.3577537717620003 12.3785940949944013
 11.8905919470838199 16.1855661780061233  9.8048342423522410
  6.8180851484084402  3.4805533548988805 15.3621545810023203
  1.4509474243955300  8.5399088402094598  9.5148594103799624
  1.8302973041135699 14.2145597043217808 15.7734007045851641
 10.6127352947676599  1.0502758111625101 22.4338435227215385
  6.6552508953199396  8.2307866020338114 21.3891344752521810
  8.1245126704954291 12.3899923898324715 19.4330642685688630
  3.8858211046864000 18.2416545431755814 12.7045330416550009
 12.6850412939839696  5.1352081461117303 18.5120920512873823
  1.8189775500145600 17.2588722507607208 18.5880367963872395
  9.6272460242869187  3.0137182806960006 18.7065526561586388
  5.2433074236488295  9.7031577280767607 18.2845708428765228
  9.2806602376735086  9.9332211230218217 15.6210561325691586
  5.0651831378484093 16.2596553608019292 15.6573783967673794
 13.9014863891888911  3.1115384949717302 21.7007827443952976
  8.7863015875101507 14.2908162446925324 15.7664818825896198
  3.7983262721996400  0.9133029677257201 22.5564956629303239
 13.6127080776365688  8.2495615651798513 21.3987727635263418
  1.1617994952057900 12.4154154437015709 19.4477824362330622
 10.7920278754540497 18.2511859068452722 12.7829653745702991
  5.7208804658325594  5.1751530005823909 18.4473745252141796
 12.1942499274146492  9.7228499638606820 18.2996595100337203
  8.6802539291169403 17.2563231493233609 18.6125230175138796
  2.7016541931880900  2.9931656649251104 18.7430366147697391
 12.0507670795693205 16.3498935128499028 15.7687204826970007
  6.8827386923721097  3.1852622444262004 21.5699219017609600
  2.3322675250856100  9.9216480316240805 15.6255052591638020
  5.6231515885417993 12.5248068076463408  9.6985913740788803
  0.9643049854004901 18.8607900788273106  9.4048942572002616
  9.8719533029296702  5.9561289049589403 15.7226225140712010
  9.1664109265682789  7.0334361038727602 12.6717237753324419
  4.8040276128158492 13.5307409138699111 12.5880705924883003
 13.2819092898706188  0.6211716323665502 12.6042244908707417
 12.5731209798441999 12.5517106238220606  9.7202109532746412
  7.9033344783095894 18.8526132650987428  9.4166036677622031
  2.9092038804450997  5.9553584270107809 15.7224990142401992
 11.7296733479756394 13.5493718007464103 12.6088833864466210
  6.3144354254734800  0.6045547064976901 12.6073074081154193
  2.2036227787618499  7.0412845712781609 12.6768975145940406
  5.4012065732201897 12.3668289256515624 15.5054957141193199
  1.0427386644852501 18.8278416612084918 15.3457943475363816
 10.1172027332957999  5.8315839018936302 21.5459644406424644
  9.2070494469226301  7.0451930769783901 18.7140762056193424
  4.5707919333626501 13.3534356469139404 18.3952010275852018
 13.5513644248575496  0.4905210575769600 18.4072846125131626
 12.3373872399592699 12.3959367980746507 15.5244795659462600
  7.9439249020120695 18.8724771496997406 15.4362643595888009
  3.1138663137965699  5.8037086388493000 21.5632002577882780
 11.5041198342590594 13.3754057246358311 18.4137405209958196
  6.6018169319377096  0.5183403988347300 18.4272917658666167
  2.2436390797075196  7.0272901441915208 18.7214977020489641
  7.9032231322539896  8.5119605681660104 12.8117143279125010
  3.8777162350000998 15.2064003552950116 12.5334443882156599
 12.3904730301088790  2.2605817173828302 12.6970174443785417
  7.0482737923259204 11.1998107540318212  9.4686656540803611
  2.1128280262881698 17.3544093804309902  9.1763088417091012
 10.9999852295806093  4.4030527380935398 15.9343515882387212
 10.8660164174389600 12.3080949334153527 14.0578764201967026
  6.1802742187183588 18.8334887907867028  7.8821315212276009
  1.4946243019703598  5.5974576338166901 14.3142800220110598
 11.0614524923723589 12.2232899324428512 11.0469064419404610
  6.5601638088079799 18.5364848814277536 10.8758443560257412
  1.4421554215720001  5.7157114358940007 11.3578989571028792
 11.8965768393005007 13.6272681310043104  8.2564061932078996
  7.9639949758362292  0.6646251905981101 13.6339806607531813
  3.6653069658534201  7.1967694677950105 14.2826162316819794
 13.2605481416059998 13.8422274009106800 11.1080101219833196
  8.0403919676055207  0.7212916301145601 16.7704145992728826
  3.5595070768543895  7.6437082305276016 11.3215690419395223
 10.7644869229652596 15.2030310676547717 12.5545997285345017
  5.4490892103063295  2.2592483322845403 12.6975168054025200
  0.9432190983824200  8.5263363507693306 12.8126579871089810
 14.0037006930646903 11.2302764773348205  9.4867449449500008
  9.0476971655136502 17.3393452550035221  9.1898811116730812
  4.0520379785960392  4.4095819950201607 15.9092522055121215
  3.9176082042560698 12.3164193185251225 14.0481280664634003
 13.1588536150611795 18.8280449602033819  7.8650117939229220
  8.4621673997862992  5.5895239245213606 14.3113629560028404
  4.1174347921827801 12.2087584231977910 11.0371838123183004
 13.5100774814883291 18.5476471030325705 10.8550157781865835
  8.4039810442752696  5.7081718975247702 11.3529192631855000
 10.6376871926701888  7.1849544370012506 14.2742506543491388
  4.9420607267183696 13.5966391083176408  8.2331793691383623
  1.0132842018147099  0.6968464308187801 13.6547174872544819
 10.5188271903496400  7.6420035869018710 11.3153179624448619
  6.3274104946627192 13.8190790822136318 11.0747718594185400
  1.0950292829451500  0.7160652731456402 16.7912182361705646
  8.0379215097081378  8.5389274905244807 18.9756515586492434
  3.1331362161707599 14.6677267560324900 18.6375128167319026
 12.4190351691999101  2.0319983080529100 18.3237880636010217
  6.3499230889066505 10.7085473735728502 15.5812996091680223
  2.2342957522603202 17.3062970325295211 15.3405192179257206
 10.9826851148022797  4.1682458941072502 21.4737193287726242
 12.2038918111313883 12.2993126886781212 19.8664435499129617
  6.5154191867501599 18.6668393425905919 13.8416217097831442
  1.4615230815694498  5.7781820908404908 20.5540350038751001
 10.8123567701244401 12.0886869688844101 17.0250727568903777
  6.5590446365386503 18.2984328262651523 16.8127029294533443
  1.4657192776416699  5.7181591790932202 17.4088088412893214
 13.1981661434221582 13.6448883480924614 14.0768693085966419
  8.0226515013798689  0.8441927656624501 19.8601077676073814
  3.9503252809856098  6.9610333124529005 20.2513891494860410
 12.9928839002948298 13.7468172602973908 17.0746075149595420
  7.8553913380707900  0.8588864092539601 22.7990108954571618
  3.5637084061499897  7.3913959256193307 17.2586532284730190
 10.0760742662884102 14.6983940307745513 18.6494569974603799
  5.4917154504229098  2.0879373759983402 18.3214765684714394
  1.0812024666805600  8.5265984841438307 18.9756137857741010
 13.3182971319252790 10.7566921483436122 15.6037371789517412
  9.2746185278768998 17.4465541158894908 15.4258380219052214
  3.9075076261301200  4.1050486442812204 21.5213051390209635
  5.2641535322386890 12.2770123229043620 19.8481319588733989
 13.5080303303766698 18.5877474899721022 13.8171206084329583
  8.4651964935848696  5.7785595628997699 20.5354518336949816
  3.8753180148173798 12.0665361162205524 17.0116100704349833
 13.5786983547507507 18.5398881493202410 16.8490848350333593
  8.4208658495978099  5.7419610836706907 17.3992155551487002
 10.9182137368327687  7.0209711764831102 20.2472760026755374
  6.2856879167474595 13.5879399695687706 14.0453566700119410
  1.0632170270587598  0.8237358771164700 19.8922671235997797
 10.5262593817877494  7.4039225999816409 17.2502271061010788
  6.0651262819872303 13.7054996036358325 17.0522266948542622
  0.9770296323236198  0.6547705290998701 22.9045671649139848
