Ba  O 
 1.0000000000000000
    13.2111520000000002    0.0000000000000000    0.0000000000000000
     0.0000000000000000   11.3306159999999991   -2.1805780000000001
     0.0000000000000000    0.0000000000000000   34.8892480000000020
 Ba  O  
  36  32
Cartesian
  3.3764552331132802  6.2632656231499189 12.3930477677487616
  9.9818952903591995  6.2632933831591187 12.3928526278235402
  3.3307648602558402  2.4602469048247197 14.6038028521080996
  9.9362913184358401  2.4603119425605597 14.6037118347823824
  3.3729245527412801  9.9553837845580784 10.2368863537881616
  9.9781203357867199  9.9553624829999983 10.2369201091356015
  0.2872750470132800  5.4511178875454398  9.9347838006694005
  6.8928583131468804  5.4511839450367194  9.9345858259927802
  0.0493394251513600  1.2576971296322399 12.4172179266683820
  6.6548798871524806  1.2575783847765598 12.4173095109443814
  0.0185152974164800  8.8827519854831998 12.3996421409016815
  6.6239085871843200  8.8827961748856001 12.3998119207047601
  3.2925553022183998  6.2925337373395198 16.7224484900619217
  9.8978546606955202  6.2924776507903202 16.7224414904065384
  3.3205554141017601  2.5346849729229595 19.0025414628305818
  9.9259899226638399  2.5349773028157601 19.0026554634484164
  3.2767135456321599 10.1035605951350398 14.5160998086960813
  9.8820155463396802 10.1038260714679193 14.5159335832351424
  0.0178007062048000  5.0187269644907992 14.4329052411337404
  6.6231908252961604  5.0190069440121592 14.4329155552676802
 -0.0103356126556800  1.2612633277120799 16.7130284149077006
  6.5951605919862404  1.2612116601031198 16.7131670996684996
 -0.0261188438385600  8.7806683474065590 16.7388973313124438
  6.5792834295126399  8.7807898116100791 16.7389304760980409
  3.3520994175091201  6.2960456617687202 21.0182701210548188
  9.9576940452334401  6.2961980585539195 21.0182596324746420
  3.5897696273273598  2.1024705808655999 23.5011358706631235
 10.1959196518817610  2.1027092036385597 23.5006335963266011
  3.3212624749568005 10.0014958791871198 18.8551346953115022
  9.9266832439208006 10.0017682671957591 18.8552553248864641
  0.0280836063640000  5.0933269470916800 18.8317232903127589
  6.6334116330409598  5.0935120893571195 18.8318547791661608
  0.0737856050352000  1.2904045390024799 21.0423677321443847
  6.6790514071862406  1.2905509305612000 21.0426706580401408
  0.0702078929620800  8.9290180631836797 21.0180178499859984
  6.6753096126052798  8.9289501927938399 21.0180773143480586
  0.7571177778564799  6.2493361037579991 12.0860818933223815
  7.3627861238089611  6.2495224923911996 12.0862766407435629
  0.6911681034070400  2.5565503424551195 14.5486296058827413
  7.2967586356742409  2.5566664812691200 14.5487513475524821
  0.9999191991115201 10.3584839321911186 10.6698873252018611
  7.6057308860632000 10.3588098007072791 10.6697775112937805
  4.3100194396319997  0.8106009932143200 12.9773981225402206
 10.9156571357118413  0.8108067572008800 12.9776062369045420
  3.9640523966319998  8.6804377182705590 12.4121709134700406
 10.5698122958678393  8.6804894991856791 12.4123737726413808
  0.6783679503457600  6.2541167172607199 16.5778733557162994
  7.2839981160689602  6.2541119584019995 16.5780061529165010
  0.7100455184998401  2.4849037982207998 18.9205229245952005
  7.3154250686696001  2.4850357998971999 18.9208826981594243
  0.6586677447064000 10.0636377361898379 14.6104045956146606
  7.2645087604155201 10.0639134100771184 14.6105343618114389
  4.0127934887092795  5.0687353180437595 14.5148469139946226
 10.6182820308830408  5.0688668664955197 14.5149070761416414
  3.9812338961425602  1.2995199062683200 16.8575841857206790
 10.5866563825563187  1.2997562629180799 16.8576046395423198
  3.9617241953150395  8.8204894574200789 16.6445078071327792
 10.5670498439846412  8.8205997043137589 16.6444967079907613
  1.0070920619784001  6.7430144420627993 20.4580596587603409
  7.6130568661817595  6.7431734106052801 20.4580011538526030
  0.6613570068075201 10.2036703265983189 18.8425337456113375
  7.2669207204361603 10.2040065059750393 18.8428284071164818
  3.9939173947316799  4.9970461706932801 18.8868953154144421
 10.5996146731070411  4.9973697730862394 18.8868208268699611
  4.0598549149212797  1.3042028498611198 21.3493047793296000
 10.6657055747713603  1.3043149096533599 21.3492012236803852
  4.3029233335582404  8.5254422562909600 20.5852469295512996
 10.9083586347894403  8.5259040921991200 20.5851039708576202
