Sr Sn  O 
 1.0000000000000000
    10.3651300000000006    0.0000000000000000  -10.3651300000000006
     5.1825650000000003   15.5476949999999992    0.0000000000000000
     0.0000000000000000    0.0000000000000000   46.6430849999999992
 Sr  Sn  O  
  48  16  16
Cartesian
  4.8620972063012502 12.8498569423996489 17.2212232879288969
 10.4681098468786011 12.8712006626186994 12.3137217333139475
  5.1173503487994507  7.9565451989290494 17.3759970156840495
 10.3231379043079503  7.7669021891665491 12.2032174757888008
  5.2229299257590007  2.3242532223549000 12.3281121097237971
 10.5173931896178505  2.4174817104064501  7.2529200614759475
  7.8378306701052507 12.8941171876639480 14.9792706488922001
 12.7216657306938004 12.8436112778411999  9.3509145194816501
  7.7090980876595010  7.7625657815541000 14.8144801631563485
 12.8780904681810000  7.9476334156319997  9.6068976262600998
  7.8328373723790516  2.3473637826337499  9.7012013410721991
  2.7653733577566002  2.3937044649660000 15.0134483694259480
  7.9923664663012506 15.4235175812353500 17.7170618256366517
 13.1743582746122492 15.4173482558593502 12.4293996936529503
  7.3259228122302504  9.8869585154233501 11.8145935624724494
 12.4432105038188503 10.1878934807653501  6.5823531586909478
  7.4368567043939002  5.5336438729994999 11.9346602225047498
  2.3800663378658999  5.6638402709294997 17.2235304622155994
  5.1575540449613007 12.7572015423857987 22.5082977688672479
 10.4502118068254504 12.7587757465045488 17.4841665795023467
  5.2474569847036507  7.5887974348174501 22.7020614360612463
 10.4073349436366005  7.7816166831914995 17.5117473093962985
  5.2075470363259999  2.7905373021141000 17.5704531772133485
 10.2805869726319496  2.7893779104979499 12.2297698293097987
  7.6561333616981502 12.7375836163117491 20.0134802687612989
 12.9825826911778996 12.7826229565724994 14.9356480145998489
  7.8510923356837505  7.6027067137183497 20.1048419450741989
  2.6553028809219503  7.7856527093365493 25.2654297599351985
  7.7482938267545007  2.7649669410092996 14.7779807571538999
  2.7084741839242001  2.8105857438627000 20.0645345457866995
  2.3724975644629498  0.1233558785608500 22.3593172159203988
  7.5551732122257009  0.1287349146000000 17.2838069063558990
  7.7823662893930994 10.2967349641358989 17.4926730862163993
 13.0112772061159987 10.2996492240866999 12.2753225026338004
  7.7203615116509514  5.2478761505608498 17.4399302776883474
  2.5808435702743999  5.2503633153299996 22.5844261763987042
  5.1427145992942007 13.2238124346939010 27.7523335869374499
 10.2136963317360507 13.1313855857965489 22.4601985385791991
  5.5013908534554501  2.6997830742448499 22.8561688932600013
 10.2624930834474508  2.6778287960431495 17.4015056524396954
  7.5997595963054509 13.1563044984808499 25.0655898980582492
 12.8967937233582006 13.1998204755855006 20.0126472232632011
  8.0080495298990506  2.7004858300588501 20.3626426810494436
  2.5275227502719000  2.6507305629507001 25.0978929811802018
  7.9843016696021500  9.8821763553952504 22.8564961204140999
 13.2946884680748010 10.0143011339360992 17.7791235079424972
  8.2980751959160504  5.3597228478979497 23.1175789748038483
  3.0359716087889503  5.6605620394387497 28.2655263063272493
 10.2921309288668503 -0.0542597453035500  9.6098015210809002
  5.1578374794411497 -0.0701566415332500 14.8212012762279013
  5.5464563138437999 10.4661224368524000 14.8226578879468001
 10.3377451192374004 10.4518051864346990 10.0232700809250996
  5.0692141668229507  4.9069565560795505 14.7261931990066479
 10.2341147568000004  4.9306939994207992  9.5526458621066492
  0.0244351720672000  0.0706648956828000 25.2576507298701962
  5.2549870961716998  0.0533736821655000 20.1039800845147028
  5.3104157690110005 10.2803862518894995 20.1715218110515480
 10.4099016089528504 10.3728286484818479 14.9024177705993957
  5.0547045914180995  5.2683075320372996 19.9061708552560503
 10.3218128260887507  5.1745283446288495 14.8110893145281484
  5.2968874604632497 10.6419564503467488 25.3538516262518527
 10.4964239097200505 10.6174669649983482 20.1614061697306468
  4.8141887980565006  5.0796872496518999 25.2580365200088011
 10.3892268542240007  5.0968466187155999 19.6964292883413989
 13.0905979182105003 12.2757758734200007  7.2083091638637473
  7.9086148166087007  7.7401575106584000 12.4016357082605992
  2.7315681599950499  7.9326039253063492 17.5858487121049478
  7.6197470910896508  2.4207234048139501 12.1055115625311487
  2.5480175663439502  2.4143245954597501 17.4064900361541000
  7.9153154585485002 12.9408229298748001 17.4352862330174965
 12.9326576432403506 12.9383715248041486 12.3942699359287012
  7.7838007197338008  7.7737896625745995 17.4344316280489977
  2.5818149902580001  7.7739700158365990 22.6445182767019482
  7.7979367876791006  2.6088631079468998 17.3205845642731973
  2.4498573494384002  2.6076040556057998 22.6422669186402992
  7.8172748552431504 13.1339092876489492 22.6724136919427011
 13.1095255784521996 13.1278638774020990 17.6075277961051455
  7.6337356632350506  7.6143227076067497 22.4921596242367983
 12.8212617772325999  7.8078201464366987 17.3126707356925493
  7.6412181469307505  3.2717883704650501 22.5014661116842483
