Li Pb  O 
 1.0000000000000000
     8.6819299999999995    0.0000000000000000   -0.1587280000000000
    -1.4488939999999999    8.5601760000000002   -0.1587280000000000
     0.0000000000000000    0.0000000000000000   33.3227059999999966
 Li  Pb  O  
  32   8  32
Cartesian
  4.4305776121971991  0.0439924564992000 12.0788897578182191
 -0.6348344024060800  4.3240810557115203 12.0788890786658598
  5.0034707558107199  0.7982156107723201 17.4192998682220797
 -0.0619420113027200  5.0783045523916810 17.4193001951000177
  5.3963565909275992  6.3244343684256004 20.9263659070417987
  1.7798379829638198  2.0443473956467200 21.0850935627037757
  4.7483173950605799  5.6337046075972799 15.5859581784330388
  1.1317990042022199  1.3536173780131200 15.7446851692281786
  2.9267333457504199  0.8950098008923201 18.7865370193647969
  6.5432512875659796  5.1750991705204799 18.6278089907937598
  2.3057219737332599  0.1600531203441600 13.3508582938243379
  5.9222394239539202  4.4401407779371205 13.1921303112844175
  4.3063030451079394  7.6651654286918403 14.2187206543812579
  0.6897850593681999  3.3850783703112004 14.3774476340654385
  4.9273150099139000  8.4001242492839996 19.6543989895525755
  1.3107971113364800  4.1200356500716797 19.8131250013011808
  4.7521292886237800  3.0553350834820803 11.6831794141875989
 -0.3132817709672000  7.3354236826944001 11.6831787175751582
  0.2328045917727599  7.9817084961201594 17.1796208715425003
  5.2982168087638399  3.7016207529254399 17.1796208620188189
  2.4809067403540999  5.5048407453144002 21.3220779199822772
  7.5463190005833187  1.2247537725355200 21.3220778929985180
  7.0002303956021992  0.5784663054551999 15.8256365038966589
  1.9348181641221798  4.8585541342516807 15.8256378447412978
  5.4531976840192407  6.5158295459726405 11.9201620878707182
  1.8366803784592998  2.2357420595831998 12.0788890643803395
  2.4847183303355997  2.9264699371728002 17.4192995222967753
  6.1012360264108798  7.2065581939780801 17.2605718555238390
  2.8024585034856400  8.5161838859078394 20.9263662307451774
  7.8678713284404989  4.2360951154920006 20.9263655658783385
  2.2295646946386194  7.7619590195995203 15.5859571692281786
  7.2949767958325191  3.4818714476083201 15.5859568248901574
  2.4954911161881999  5.5220997721656007 12.7870709725024785
  7.5609005553046993  1.2420104881392000 12.7870693809693403
  3.0915237048062192  6.2274939704995207 18.4055147497987797
  8.1569335629585797  1.9474073401276799 18.4055134264142204
  4.1415142486851995  2.3326817726951998 14.5997452168546982
 -0.9239001095818199  6.6127683174652798 14.5997436253215582
  4.7375501352932199  3.0380811071347202 20.2181881562706387
 -0.3278647001941000  7.3181663678784004 20.2181859347908173
  2.4779528713147196  0.3638864048227200 20.6190720377712964
  6.0944708714290590  4.6439738912121609 20.4603437156551990
  0.4047768217265999  8.1852347270856001 15.0555700554238179
  5.4701870714233598  3.9051442446345601 15.0555688082286991
  4.7550819424216400  8.1962883967526405 12.3861830082529973
  1.1385643908927396  3.9162008247614399 12.5449109907929177
  6.8282602919779993  0.3749434129584000 17.9496865424516159
  1.7628487116998999  4.6550309849496001 17.9496852111306602
  0.7587163395160200  0.6378154608931200 12.2052468857697587
  4.3752328924514599  4.9179038033001605 12.0465205709524170
  1.3029079438153199  1.3426616367595201 17.7294553335650171
  4.9194248440279598  5.6227499791665601 17.5707286791714985
  5.0428289176841794  0.6313346372452799 15.4345283646278784
 -0.0225820839510400  4.9114228940505598 15.4345283408186784
  5.6469718578605796  1.2855263996404800 20.9587367632174590
  0.5815608274761600  5.5656138004281601 20.9587357587744414
  1.5860641563996802  7.2746505419788798 12.0465202139161587
  6.6514760553201198  2.9945616003595203 12.0465195696839587
  2.1902062578183199  7.9288400787283200 17.5707273430886950
  7.2556195169840203  3.6487507947019200 17.5707280143046560
  5.9301269710005995  7.2175141064351997 15.2758000234644182
  2.3136083487765595  2.9374261920369600 15.4345280329880978
  6.4743208179984197  7.9223608815139208 20.8000094169733387
  2.8578021957743798  3.6422729671156797 20.9587354271346555
  3.6203574845852398  1.7159017458974399 12.6224355440310383
  7.2368752963433582  5.9959903451097603 12.4637072012802985
  4.2088484612842203  2.4123711903355201 18.2320715551815553
 -0.8565631339401800  6.6924609023707200 18.2320735101000828
  3.6126783997319203  6.8442739116955194 20.3828201303526555
 -0.0038396579951600  2.5641852268814400 20.5415478129983953
  3.0241867431961600  6.1478033544345605 14.7731858218448782
  8.0895988445043994  1.8677152688328000 14.7731841557095791
