Ti  O 
 1.0000000000000000
    13.2938189999999992    0.0000000000000000   -2.5583969999999998
     0.0000000000000000    9.4868860000000002    5.1167930000000004
     0.0000000000000000    0.0000000000000000   25.5839670000000012
 Ti  O  
  62  12
Cartesian
  5.9847542130360596  3.5759758040522400 11.0883768872145012
  1.4595391560033899  3.6698715941552198 13.3754152670886803
  4.4854511173926301  8.2900141060263799 13.7396865873229608
  0.0019265402494800  8.3263994445087608 16.1261174524457402
  4.2703712174207693  5.8974891931924196 12.0643856485029026
 -0.0844842138178500  5.9198068079008399 14.4957240741742304
  5.9851875915354604  8.3333312275023808 16.1633637866548305
  1.7260941854633400  8.1618245511974408 13.5936859397519427
 10.2582454897761295  8.3578574841404603 13.5655649425266702
  7.3200376381047292  1.1570139757398001 11.8297813650135897
  2.9359440472338898  1.0289074311633599  9.3905471612782794
 11.7076102214078688  1.0698751253214600  9.3319859774898912
  3.1101697814695202  3.4781082342565002 10.9608262466872102
 11.7144121368374101  3.6128596783939200 10.9999741982106922
  8.8100433026159397  3.5030114997442197 11.0697917118813614
  4.3984102363047004  3.5584883424818603 13.5079531767630421
  8.7859389500051392  1.1456582680666600  9.4332288844054695
  4.3708206431666694  1.1075200376580601 11.7514255714279496
  7.3037136260018691  8.2781893667094000 13.6550623854083124
  2.9184533695755897  8.3125115920933599 16.1412160467630805
  7.3058444922493795  5.9055693637363396 11.9792604300214620
  2.9512121312935800  5.8319738020338798 14.4232955685386806
  5.8701365008763400  5.9066207004428604 14.3742958578914806
 10.2381797993775301  5.8258785726477402 11.8886791807658305
  5.8461079230338395  1.1879956788254402  9.4094076149536203
  1.4644887106934699  1.1711853911777401 11.7494558223752410
  5.8688368971308993  3.6386613519858400 16.0263428094676108
  1.4566216944856498  3.5895379716712599 18.4821071993472508
 10.3925421751397398  3.6022585576332200 13.5275205786331032
  4.5211987284363895  8.3319823820508994 18.7102197713234304
  0.0907526482909200  8.3491391307753204 21.0363227720182593
  8.9149896285149701  8.3648966586836000 16.1656763819044009
  4.4885052393696894  5.9175145865055194 16.9349743458760926
  0.0119444963715000  5.9732415984269798 19.4235525753573519
  8.8156797489337499  5.9163548146920197 14.3929299501256907
  5.8618540528247696  8.4480278689801001 21.0810649280452722
  1.4938026450939899  8.3187431480313201 18.6263395808111802
 10.4187062720663999  8.3839513538211801 18.6160147876839410
  7.1222819771772894  1.3265348570672200 16.9404995935249119
  2.9030034260719799  1.1229065334548800 14.2982080783241017
 11.8525460830553691  1.1690542571067000 14.3083596692726118
  7.4289207955624201  3.6056500245093601 13.5648222227595916
  2.9256918540210899  3.5837489789651999 16.0686531567297308
 11.8508665419629082  3.6638129841490401 16.0066737451657595
  8.9657958130309794  3.6204270827495399 15.9454111354910122
  4.5101886546024001  3.5887859462180405 18.3980418222468280
  0.0377364993043500  3.6128012391761599 16.0245886239465420
  8.8976320219848599  1.1700174606422802 14.3179131729524904
  4.3748846965731598  1.2207442195597200 16.7331046897862130
 -0.0110616538517100  1.0967828749521200 14.2593560514770825
  7.4257032925498496  8.3137469743882804 18.7088512713197979
  2.9967802852472101  8.3129694292117193 21.0321084913351193
 11.8191109318266587  8.2978109981543398 16.0844077479099319
  7.4390064172231494  5.8370374274363801 16.9645843474045392
  2.9097181340488798  5.9038017671368204 19.3393929277504206
 11.7741358151386191  5.8634455976502800 14.3565323176775514
  5.7834424555261190  5.9493658575619204 19.4571421480729789
  1.4356239744369599  5.8686614875730809 16.9139750711323416
 10.4684025556340998  5.9372313714170399 16.9035766703558998
  5.9808341316893392  1.1682856296029800 14.3440515592454894
  1.5623631236990700  1.1973646428324600 16.7933613669345903
 10.3536948443197492  1.1620805420769600 11.8892971252680884
  7.3773248252596195  2.5961717358740000  9.8458408323228692
  2.9230417312034400  2.3585955393992601 12.6343775528245299
  5.8184356423416297  7.2140807501741797 12.5468282569193299
  1.4912825358261599  7.1083569003441198 15.2531935395112015
  7.4482597128762897  2.3784026394655000 15.2873205441887592
  2.9560619823411600  2.3588784383397798 17.8777165698640026
 11.9320536227923792  2.3525328500321003 12.6126758009350635
  5.9961625696872902  7.1097872381463398 17.8248753034216705
  1.5293340986408099  6.9188177408681000 20.4635296307701893
 10.3377345511047292  7.1205405285584806 15.1962405889983501
 11.8717119148458590  7.0832082091155808 18.0307714845299820
 10.3019961127960791  2.3740943599263202 10.0878382403403695
