Ti  O 
 1.0000000000000000
    13.2938189999999992    0.0000000000000000   -2.5583969999999998
     0.0000000000000000    9.4868860000000002    5.1167930000000004
     0.0000000000000000    0.0000000000000000   25.5839670000000012
 Ti  O  
  70  16
Cartesian
  5.8691469089899799  3.6510536916922001 11.0146931173163605
  1.4966939177882999  3.5822640915684798 13.5599711769628595
 10.3862817169580701  3.5254037762454602  8.5716178683907209
  4.4040816453664799  8.2698793289176997 13.6213955112443212
  0.0296001503235900  8.3164065280095212 16.1530981247530008
  9.0162898586768705  8.2296291279477796 11.2257082617840407
  4.3813860387551102  5.8424877383122400 11.9418258590749300
  0.0096611500200600  5.8616637707217594 14.4262737097631408
  8.8480793116623602  5.8222660613278006  9.4640775773900927
  5.9876151758230494  8.3349974092905601 16.0581731315721008
  1.4529374454879900  8.2781540754934806 13.5861042091428317
 10.3639958258482796  8.3835667554627396 13.5497361642572915
  7.3167652316196898  1.1812682433562600 11.7936833588185408
  2.8487739502252798  1.0744621295713201  9.3125470441587304
 11.7227403156263392  1.1240937223689200  9.2547745602311213
  7.6246694886354289  3.5033452483937002  8.3871906352250516
  2.8839204147738600  3.5414842377531799 10.9783277292661605
 11.8362965163389084  3.6466984520673198 10.9784309587813595
  8.7982761457899006  3.5814706084234400 10.9744551025306603
  4.4400063300793198  3.5437255145706796 13.5122015476709496
 -0.0457482852010800  3.4679120137902801 11.0921773726545112
  8.7811162183483198  1.1571887241799199  9.1988925382916396
  4.3886492497039491  1.0908636273012799 11.7927063770090204
 -0.0628345648854000  1.0836147925775399  9.4292950912729818
  7.2669732325551903  8.3107565181833607 13.5183617230464108
  2.9531828070221398  8.3182161515140205 16.0896466225446915
 11.7950113649906996  8.2297725696641013 11.1296827956192423
  7.3268468651347201  5.9460822565795999 11.8480726503985618
  2.9308276551153600  5.8387856707884600 14.3692170491217617
 11.7638296490206802  5.9113238241773605  9.4161286508995303
  5.8573499740093800  5.8473950198334599 14.3406486971336715
  1.4566537325894400  5.7982089312024199 11.9712876302381801
 10.2441594921019199  5.8372752636684009 11.8680621100877115
  5.7998760086975398  1.1801564751859202  9.3584437400482496
  1.4635400637696301  1.1083875185139000 11.8286673174638715
 10.2429768739636788  1.1703215153385800  6.8684959740496296
  5.9256112087487693  3.5553746516278002 16.0349991213485339
  1.4482549636216198  3.5626091611536799 18.5252553541199525
 10.3881734274017692  3.5856800346104998 13.5061198212909002
  4.5332532976292095  8.3690540018665196 18.6566606555966423
  0.1198665107154900  8.3430707492765599 21.0352122995294835
  8.9113157486961292  8.4168448541735401 16.0823101023046817
  4.5229138969637699  5.9265069211383405 16.9064503194007401
  0.0171839892539700  5.9684176117648402 19.3768175498206290
  8.8217291012696997  5.9237778286427192 14.3806853351501616
  1.5981252250055400  8.3241565549206413 18.6224756061087220
 10.4544505596554096  8.4279798968783215 18.5689750543520589
  2.9255030817912897  1.1522927320530401 14.3844844535639922
 11.8431282099230089  1.2045356850910001 14.2947081655337893
  7.4299835034532800  3.6526638059841199 13.5308765946508025
  3.0401491097854798  3.6508062737053200 16.1128085967166221
 11.7945419602418085  3.6487913539877801 15.9956610773071084
  8.9183366133246000  3.6546865049481800 15.9493612996223213
  4.4600817249657903  3.6867607178255803 18.4885358155291115
  0.0066809416766400  3.5686471846172401 16.1067102184228510
  8.9107286936490890  1.2639505342072401 14.2331745927981697
  4.2478490951473500  1.2897051528446000 16.7415250128842494
 -0.0105812152330500  1.0915075022541001 14.3133994189077303
  7.5536898008487299  8.3480867505113405 18.4980833833269003
  3.0555054648033297  8.3083205704651402 21.0001005425959910
 11.8263099336297302  8.3055947983796194 16.0759863497537907
  7.4295232714394999  5.8281582713535398 16.9114693973523202
  2.9263593366730798  5.9559068757212001 19.2366714044593934
 11.7763356763067399  5.8520545987612200 14.3674896753346211
  5.7133616957801996  6.0599304858423402 19.4277671969305707
  1.4682448792519200  5.8301157005419206 16.9074717299458790
 10.4019975368416802  5.9819007536234805 16.9171317208707812
  6.0147324395720094  1.1939523996759800 14.3638780317127335
  1.4832683570420098  1.2368491572333200 16.8831528020193993
 10.3662002069148578  1.1737453324959799 11.7792823567188414
  7.3079179291988101  2.4816666346246197 10.0774482194456105
  2.9241008497631698  2.3587161177203200 12.6363156662156317
 11.7791769642416089  2.4118600403217001  7.4375840371929014
  5.8179472274315698  7.2129213578361195 12.5462979525112601
  1.4918455290608099  7.1082249377598608 15.2539465524047699
 10.2929822388231287  7.1576151841776205 10.1020365009397910
  7.4753460020269786  2.3631800770587601 15.2754588193434309
  2.9232291740513396  2.3636149559130000 17.9202955061719216
 11.9182910637344399  2.3792684126818600 12.5978186276342008
  6.0468835408235098  7.1247965353558005 17.7347571594209299
  1.5303696871409098  6.9954081227430400 20.4025908695126006
 10.3039287682023009  7.1138096778103392 15.1806780931746417
 11.8977295138871391  7.0737690421521604 17.9476408351845897
  1.3826498339184299  2.4507477347242999  9.9729590327937405
 13.2288578228891680  2.2515420076274402 15.4582695700093513
 -0.0647511347706300  7.1559405590609000 12.6341390009885188
