Cs Ta  O 
 1.0000000000000000
    22.6234980000000014    0.0000000000000000  -15.0823319999999992
     0.0000000000000000    8.4915579999999995   -7.5411659999999996
     0.0000000000000000    0.0000000000000000   52.7881619999999998
 Cs  Ta  O  
  36  12  96
Cartesian
  0.0214181180265600  6.4963813624888394 17.2089884721691249
 11.3312418583467611  2.2441852071926598 13.4421287720582985
  7.5255765245864996  2.0795926591540197 17.3386725464612397
 18.8371836752540425  6.3284494243511196  6.0244505718948602
 11.3146253515357209  0.0318409648637600 17.3755928886106759
  0.0051821384518800  4.2783296043658199 21.1452384462652176
  3.7858236210743406  1.9343221418509000 21.0893680588977013
 15.0970583889648005  6.1852988245026994  9.7750874140598398
 22.5708938424503991  2.1122087334320199  9.7475504693525394
 11.2522657154135395  6.3645346397344396 13.5237636284764804
 15.0889842887635819  4.2697534704481397 13.4068260854275216
  3.7721705662663201  0.0242241222533400 24.7138623091474798
 18.8981286640462827  2.1665664229820596 13.4444070337185586
  7.5866106499608605  6.4141088648319196 17.2137719845862414
  3.8150932240818003  6.4168526570528792 21.0883791858001182
 15.1269286458441616  2.1702646663222200 17.3183044603885214
 18.9057968986933815  8.4869233925591789  9.7813692053378389
  7.5934133095744798  4.2393514000874797 21.0932553791473829
 11.2665689695540809  2.1403701363832202 21.1018022350451417
 22.5798803483259611  6.3881573049346398  9.7913948084765394
  7.5903125329386008  2.0927560176188797 24.8084265700843183
 18.9040840736598028  6.3437208120894795 13.4983279542634200
 11.2739722830396012  0.1041911619132600 24.9027536613504594
 22.5915895921858230  4.3525183086379000 13.5953332906344642
  3.7779510962403005  2.0724819983159799 28.5806036971650670
 15.0918816801524418  6.3116134670512603 17.2574594674574406
 22.6052503389831614  2.2039506769082200 17.3966028787333222
 11.2823070059377812  6.4461044609668594 21.1672393456002617
 15.0198941619864019  4.3066421570494198 21.0199665573763781
  3.7052045597163601  0.0671053013352200 32.3310247111591238
 19.0134288691333211  2.1450179906545195 20.9617734154691995
  7.6885252099862411  6.3990495112968198 24.7276437900124826
 14.8231054745132411  2.1713724749789001 24.8827057731860961
  3.5059388254471799  6.4168574123253599 28.6569964628616631
  7.6879503469020607  4.0688190072278401 28.5222343936201241
 19.0084315646600999  8.3150277649782183 17.2040705761738799
 15.2430582283678806  0.1199433416655800 13.6693401068203215
  3.9521594965946401  4.3744679670809399 17.4507762775158639
  7.4991715088958006 -0.0392003434356200 21.0340450093584614
 18.8362108648400408  4.2145193671969192  9.7249351912234836
 22.6221136681573789  8.4874896096466195  5.9684068885326624
 11.3012112008665806  4.2470084077672396 17.2898162730019784
 15.0897668355594003  0.0188385214230000 21.0661457169056412
  3.7757891947714199  4.2537642913120397 24.8220591129208223
  7.5520709030943003  0.0068342606251400 28.6055998722236424
 18.8630364513585604  4.2556234330205598 17.2996566651037220
 22.5927979132139995  8.4135879200349386 13.4837203386631188
 11.2359347171472610  4.1670157236021597 24.8211848655464422
 17.8770182129911817  2.7948824439072197  8.7416853903063600
  6.5769189570513005  7.0340782786521396 12.5214606946020588
  5.0931005082112799  4.3532231079519006 15.8514923966417403
 16.4064005752341622  0.1071244007932000 12.0801397452397801
  1.4325318838139400  8.3821884312715991 15.1644251330760014
 12.7421945448283793  4.1395738952758796 11.3715576858993614
 17.4284686789596002  4.1371787664264001  8.2876050143070614
  6.1145098156749604  8.3987998717779391 12.0548185459265991
 16.0486153840036820  6.9476867809561593  6.9317341354643389
  4.7372195368074603  2.7078774311457399 18.2452161708228004
  2.2677133789058401  4.3618542671654197 18.6047046098060420
 13.5792053759685594  0.1170250479277200 14.8363169186403017
 16.0147733458154420  1.5120564081787200 12.4744530625760426
  4.6996799141060999  5.7472470297617804 16.2523825910815773
 14.0331026524573819  1.5307046337869399 14.4486046101388190
  2.7240277499209800  5.7687738086164195 18.2172779606726394
 10.3553200346668195  2.6876828079101398 16.2929459197023014
 21.6658711204477221  6.9348326001180798  4.9820709408417017
  9.0606231698277604  0.1711964326952400 19.5572969315250589
 20.3686263972638990  4.4189313781649595  8.2472223720237032
  5.2847271921457804  4.0031125202419595 18.8113864021312835
 16.6028711763254400  8.2424593348881192  7.5064084642593620
  9.8708335265322003  4.0434524307611799 15.8072836683766180
 21.1812543009646213  8.2890535326210788  4.4963590686437414
  8.5218192266400017  7.0049921450347403 14.4728004412498201
 19.8331284258388827  2.7660660870874798 10.7024457123446410
 17.4100135604661013  4.4334523669228600 11.2246609002122408
  6.1017092142715805  0.1855306071771400 22.5354082825441218
  8.5119893167590011  1.4976454700124999 20.0523202584415223
 19.8203328016050619  5.7367303200943596  8.7424329460919381
  6.5633767573834803  1.5230833755663600 22.0107266809245594
 17.8712621163950409  5.7679170953297998 10.7030601665503227
  2.7985475162181603  2.7631604457710397 23.8552639099807209
 14.1069808163512800  7.0026981506410388 12.5400590952495588
  1.4673922056471602  0.1372235772800000 27.1193303936103014
 12.7821385928971800  4.3827607377081597 15.8049084273216014
  9.0360796155525005  8.3399888695503801 14.9788885439797799
 20.3432129694905406  4.0910651908762397 11.2060760736635388
  2.2954203769064403  4.0930499227275794 23.3471781523773600
 13.6061400077474417  8.3372759866005399 12.0337328424973222
  0.9710335644670801  6.9904374447915796 22.0055182238033424
 12.2854862987130602  2.7442504254296796 18.2350211930957400
  9.8448950073702619  4.3828812329161799 18.7302108027224961
 21.1542735172498197  0.1382257509551600 14.9609472805375194
  0.9610701759478801  1.4741611322921198 27.6171186136289961
 12.2756631758814603  5.7210332505534600 16.3031479107137400
 21.6566597370020411  1.4748079342649800 14.4712287868437617
 10.3480434127701013  5.7171228031788797 18.2379279355304398
 17.8788308076509423  2.7548177447827800 16.3206256186819800
  6.5680111809487807  7.0014755361201999 20.0923677713078419
  5.2312805355306597  4.4177655721671396 23.3621179563399579
 16.5444335498165422  0.1706661348981400 19.5898025996864398
  1.4855251655291399  8.3208232533132200 22.5110637396395994
 12.7975302635265020  4.0740588080073197 18.7384813502980165
 17.3447171680685415  4.0789558045903398 15.8079636553148397
  6.0333482428349399  8.3248029068855001 19.5790309489953600
 16.0519485039640202  7.0295615340363602 14.4973420348219229
  4.7404610316009004  2.7839602623453001 25.8093168173319611
  2.3227950357214202  4.4121478121410798 26.3004515420005234
 13.6371147437991613  0.1667041437665000 22.5280501406429394
 16.0510186781962219  1.5090373196473998 20.0958017920692669
  4.7368068842039408  5.7561947542575398 23.8660434034844471
 14.1462941212958420  1.5023426602357799 22.0401905443681798
  2.8333349903878204  5.7541391178968997 25.8132935758103983
 10.2963256438721409  2.7229043469292802 23.8050159143361633
 21.5922979213068622  6.9597674657760198 12.4842491880333561
 20.2613407925783413  4.4054763346827999 15.7973970489273050
  8.9495623820309405  0.1597975350672000 27.1105241216021398
 16.5477501546233405  8.3663290031417397 15.0026518892206795
  5.2365805424071201  4.1220266001623598 26.3154255828567614
  9.7888982300605800  4.0629225542682201 23.2951812095140838
 21.0944949960144612  8.3038715560778193 11.9773728826330839
  8.4788988311743214  6.9585267642366402 22.0253053384474207
 19.7879710188909606  2.7115418780850598 18.2552413969032017
  6.0231468551167806  0.1741736578456200 30.0489714280459737
 17.3354232088551612  4.4227249817014602 18.7351578830301619
  8.5027406045416196  1.4918462453919799 27.6402942003918604
 19.8141993450622813  5.7393372284003599 16.3295890485895825
  6.5693701744736401  1.5100645434186599 29.5797916015998652
 17.8799624350209001  5.7548701561251194 18.2673650278347637
  2.8275042362482803  2.8156427747367800 31.3688664203691019
 14.1249911568741009  7.1049741265629791 20.0441208240613804
  1.4680234012413600  0.1094242543619200 34.5679944153394771
 12.7699212252722401  4.3800488737452792 23.2728801717722433
  8.9600214513913219  8.3004640636835791 22.5107197870583349
 20.2716041686810193  4.0566217333166401 18.7404386599333250
  2.3618131040170800  3.9572926676830198 30.8637459246485975
 13.6983429787863606  8.1687004732819997 19.5711543519316784
  1.0793324756280602  7.2714958716636398 29.4847369386380365
 12.3887222972566224  3.0304507454174798 25.6990963416625213
  9.7533101102967006  4.3878549082679399 26.2417139279081368
 21.0408811517491223  0.1465409392955000 22.4823488648031002
  1.0518168724205401  1.3919598788068199 35.2929886913039965
 12.3770512871083813  5.6123423271404196 23.9664246182270411
 21.7295243681855403  1.4411825534030998 22.1013865031648962
 10.4334441766653612  5.6652406575325802 25.8580897609069176
