Pt  O 
 1.0000000000000000
     9.4557179999999992    0.0000000000000000    0.0000000000000000
     0.0000000000000000    8.2206259999999993   -1.5820600000000000
     0.0000000000000000    0.0000000000000000   34.8053269999999983
 Pt  O  
  24  48
Cartesian
  0.1246858397062200  5.3844830663467196 10.5371393423587296
  4.8525461635067391  5.3844831485529800 10.5371389784848599
 -0.0956332407084000  2.7223199816447599 12.1650197263364106
  4.6322265157490401  2.7223196528197198 12.1650194415655388
 -0.0757353842066400 -0.0186718366588400 13.6628955979058695
  4.6521247504795191 -0.0186713434212800 13.6628955029822681
 -0.0389915041876200  5.4936334145368395 13.7273511318672803
  4.6888685359413591  5.4936339077743996 13.7273510369436789
 -0.0186974531016600  2.7368213303212796 15.3060211462900178
  4.7091620196842392  2.7368210837025000 15.3060208456985496
 -0.0092306719116000 -0.0014073711712000 16.8646612652852497
  4.7186281389740392 -0.0014072889649400 16.8646609014113800
  0.0091952129691000  5.4818156070117601 16.8859566422219096
  4.7370539292975593  5.4818154425992400 16.8859566738631095
  0.0186820402813200  2.7435502415273199 18.4446013808318483
  4.7465405674954191  2.7435502415273199 18.4446010327785785
  0.0390462527948400 -0.0132203285269400 20.0232755877160393
  4.7669042126658594 -0.0132204929394600 20.0232752713039659
  0.0756856471299600  5.4990740714424202 20.0877311216770273
  4.8035435124437988  5.4990734137923392 20.0877305521352874
  0.0956426964264000  2.7581029691163397 21.5855991778693195
  4.8235008454117789  2.7581027224975596 21.5855988772778495
 -0.1246449910044600  0.0959876462514400 23.2134808116764972
  4.6032124960806593  0.0959882216952600 23.2134810489855710
  0.9277580783026199  4.5345201549402789 12.2237098994374396
  5.6556184966603196  4.5345200727340194 12.2237092191514982
  0.8785067418562799  1.7989098050350600 13.7286962938534494
  5.6063667819852601  1.7989097228287998 13.7286959616207795
  0.7250106532045799  7.1692928536665796 10.5342745691543591
  5.4528714497909991  7.1692929358728392 10.5342745533337592
  4.1607543932079594  3.5764200874982199 10.4714346461996790
  8.8886118802930785  3.5764199230856994 10.4714353739474202
  3.8066494791982799  0.9873233241906799 12.1334452157646293
  8.5345074390692997  0.9873229953656399 12.1334452790470291
  3.6839959569617995  6.4173110903165789 12.2320461803605998
  8.4118541059471799  6.4173111725228393 12.2320472086998091
  0.9265936066309199  4.5688409396652396 15.2951379711404680
  5.6544528903024593  4.5688411862840193 15.2951379236786682
  0.9336899338755599  1.8157685826295999 16.8506256128887486
  5.6615489338755598  1.8157684182170797 16.8506252964766787
  0.8871815121066600  7.3003534719219800 13.6867194788777304
  5.6150412685640996  7.3003535541282387 13.6867191150038607
  3.7589352642700198  3.6767491285465197 13.7643066932874909
  8.4867933186982185  3.6767492929590397 13.7643077058060985
  3.7655042461217998  0.9216720896545199 15.3047777348300595
  8.4933627733358996  0.9216720896545199 15.3047787789898688
  3.7719981495726596  6.4052766692963994 15.3171410207134784
  8.4998569604582990  6.4052769159151799 15.3171416693582181
  0.9622936699399199  4.5587323646980797 18.4458576069816580
  5.6901520080396599  4.5587322824918193 18.4458576228022579
  0.9689553178280998  1.8036623955444397 19.9863126697152893
  5.6968135613706599  1.8036623955444397 19.9863126697152893
  0.9558761686905000  7.2957786935529789 16.8513828883182626
  5.6837344122330595  7.2957788579654990 16.8513828566770627
  3.7941322833814199  3.6645752857093798 16.9000001574556968
  8.5219912833814195  3.6645754501218994 16.9000004738677667
  3.8012620838677798  0.9115012023422799 18.4555229367635754
  8.5291216512108594  0.9115013667548000 18.4555232531756488
  3.8406792844797599  6.4007826996809793 18.4818330812694995
  8.5685390409371998  6.4007827818872398 18.4818334135021693
  0.9211925950665000  4.4930990511265998 21.6171713628124103
  5.6490500821516187  4.4930988867140798 21.6171710464003404
  0.5671488595522799  1.9040808770036197 23.2791807300145592
  5.2950066303089391  1.9040812058286598 23.2791810147854257
  1.0438838456177999  7.2836688071861193 19.9365211404033538
  5.7717421837175396  7.2836684783610801 19.9365205075792069
  3.8493364670946595  3.6814371049355397 20.0219125326251088
  8.5771963181092801  3.6814372693480597 20.0219131970904485
  3.8001334493672996  0.9459353494997800 21.5269020437041512
  8.5279936786106383  0.9459355961185599 21.5269019962423513
  4.0028322720748193  6.5318347684853393 21.6342792882819950
  8.7306922176466202  6.5318347684853393 21.6342796363352683
