Si  O 
 1.0000000000000000
     9.8313830000000006    0.0000000000000000    0.0000000000000000
     7.2834099999999999    4.4456129999999998    0.0000000000000000
     0.0000000000000000    0.0000000000000000   43.9877200000000030
 Si  O  
  14  30
Cartesian
  2.9589078854460800  2.2237082481409201 15.4274633332260009
  6.2230189328037895  3.2159625791459399 17.4209098251160022
  1.5858646097740299  0.5594681261581200 17.5977430987792012
  6.5621130855704699  0.4858983879192000 18.9020801685352033
 11.0355460713222620  3.3373944537848099 19.1069103063468013
  7.4630065845895901  1.0427733880144201 21.8455268100019993
 10.1857103447764601  2.7584226231853495 22.0816414541548021
  5.2978742033685702  2.7474785464703402 23.3129219590260028
  2.5398382084496500  1.0777952603864700 23.6032866582547989
  6.2649831361602502  3.2452602802191897 26.2643831630768041
  1.7065739966701101  0.4546582207017300 26.6203753411596011
  6.6048408596555905  0.4843274861095200 27.6892989310196000
 11.2125413317592191  3.2157387869875196 28.1034802645044017
  7.9996649556043504  1.8161368933880699 30.0736387776720022
 11.7624998067487194  3.0161605488946202 14.6165224426396012
  4.5006389627936709  2.8571476403041203 15.4211378990900005
  5.6041254615759604  2.2258834421256899 16.1998093982844011
  2.6432087679655201  0.9487056839867100 16.3845987308640026
  7.6024910464648503  4.0703077710327600 17.1245487198968007
 14.8984188226687007  4.2430513110227999 17.8808647800328018
 10.9060336289653605  1.9716231416418000 18.2273718860520013
  6.5091924034939002  2.0808348263540100 18.5601548234312013
  9.7275452025010907  4.2357854900478600 18.7462721452776009
 12.4051537577196598  4.1659388193280495 18.7672912374024001
  7.1344717546223499  0.3482702115426000 20.4139455828476031
 11.0153629534950710  2.9749291776525602 20.6927753822608018
  8.8964741759591206  1.8089367341171398 21.7976985221688011
  6.2957063752759499  2.1203845111104300 22.1927575140152022
  9.7163967241464704  4.2028959559512593 22.6580503787540017
 14.7622256571868391  4.2905720243443497 22.9473197837548000
 11.1515616061888494  2.0704482739653298 23.1912536850148001
  3.9579323389227796  1.8367077227739299 23.3827982117547997
  6.0785514411911308  2.7461255686099197 24.7347027221643998
  2.4130927010623000  0.6670929937661100 25.1671829471692021
  7.7430036249182592  3.8689563112825498 26.4588700284076026
  7.6922318039516409 -0.0752812547877900 26.6196169928668027
 11.0053691446931410  1.8812791719751498 27.1840528999591982
  6.0767823542713106  1.9529685048273298 27.2373435828620032
 10.0471003626664501  4.2649079006005195 27.6692884773144030
 12.6746172383782802  3.8788725622719600 27.7871896429847993
  7.3535415205870009  0.6689016025029000 29.1459795512060005
 11.2700586916279200  2.9248723310267701 29.7257825682804011
  9.5768353266295403  1.8033694929572399 30.2849931741140033
  7.0995258500562901  2.9232904485529798 30.7173445150991995
