Al Tl  O 
 1.0000000000000000
    11.4345389999999991    0.0000000000000000    0.0000000000000000
     0.0000000000000000    9.9026010000000007    0.0000000000000000
     0.0000000000000000    0.0000000000000000   42.0131790000000009
 Al  Tl  O  
  24  24  48
Cartesian
  2.7452694143376899  8.1564709094995500 20.6030201454253792
  5.9049248068545293  3.4201258723285206 20.8965212729968499
  8.4621037157833481  8.1553179496651200 20.5943238375041702
  0.1950531105513600  3.4153268738319000 20.8917258887457891
  0.1049193277753500  0.2729994595644600 16.3641563277484501
  2.7520530689448295  5.3656443388339206 16.5340618249423486
  5.8036758517527893  0.2740686433944300 16.3683920964552314
  8.4676364318238893  5.3598431971161009 16.5372909578802911
  2.8136008472570095  1.2979680770434501 25.2508162999762789
  5.9058761604993304  6.4196110398992410 25.3768932287055904
  8.5255024029234594  1.3069562718671102 25.2469405842135295
  0.1820993786998200  6.4134785571519606 25.3777578599294138
  3.0536348042903998  1.5349666306724101 21.7420175944413039
  5.6018534941134295  6.6880807526882702 22.0287382150539628
  8.7649164935976582  1.5446498890602602 21.7354005187488006
 11.3171415028501201  6.6882461261249713 22.0243398553444507
  2.9752446361035600  8.4371645910149997 17.2272746569926625
  5.6143664244865201  3.6487668287655004 17.4041156897758817
  8.6886434303066693  8.4396108305400315 17.2030023830889895
 11.3400310486749305  3.6496080547204501 17.3952761169142818
 11.3950075117691991  9.5129432561729708 26.0446565775766494
  2.9777685818970299  4.6852743530337300 26.2470483453005095
  5.6792113521193501  9.5076519003546309 26.0493603730974925
  8.6910442261151086  4.6895686159573797 26.2536393728220325
  0.4251528544469400  0.1490452359631200 22.8493677761118867
  2.5995417033614099  4.6601834396979598 22.9334004360887427
  6.1506524782375793  0.1336302530904600 22.8535606913760923
  8.3227232030605798  4.6650234349627206 22.9405804883798403
  2.5918957701682799  1.8796249750352401 18.0328198062624310
  5.9213430896776797  6.8691392161902005 18.6641098339164309
  8.3216172544484994  1.8905154595110001 17.9760209291769613
  0.1933357571389500  6.8618450593196103 18.6602778118598387
  2.5150576119599100  7.4145583380305702 27.9787521787722007
  6.0016169838193791  3.9989900387862902 28.2179966467194880
  8.2042652667638389  7.4044189658406605 28.0170396290584804
  0.3037297134967200  4.0233560817288598 28.2438196270600486
  3.2422044168833701  4.8559955903777698 19.7208433777914003
  5.4263891210137496  0.3552924504987000 19.6414162024965293
  8.9650300737288582  4.8337815806845201 19.7269596563902176
 11.1141870115043684  0.3417551988276600 19.6361620343307912
  2.1786190566175199  0.6952591405597500 14.0745435253277407
  5.2827431822078097  7.4914803562344305 14.7222951567775198
  7.8455387366934293  0.5869776645351000 14.0384638675979101
 11.0424951962637294  7.5046900298643902 14.7052235216226599
  3.0819423777295798  8.0175792064457703 23.9700617635646722
  5.4635320483928398  3.1588367335766101 24.5348264430629115
  8.8004110178345094  8.0178319208232907 23.9748180755592628
 11.1806301446532288  3.1596855845343303 24.5581172891051374
  2.6455844754803697  7.8063893066730605 18.8535901114700088
  5.6260699038438000  3.8048734114497003 19.1835906084295189
  8.3630533938405289  7.8342417583497008 18.8398589441774398
 11.3664910293024892  3.7950689452256103 19.1755917192797121
  2.8032203440620296  1.1870515188927000 23.4685987609975193
  5.4730961255032202  7.0524894386415609 23.7737362787566227
  8.5115290532292889  1.2112012890294301 23.4643188784527901
 11.1760556429808897  7.0354873659066310 23.7723565659582619
  1.2369844269313499  0.7112391658454701 25.8099352484804996
  4.6654110598963792  5.2933039570347304 26.0040680654765382
  6.9534852972197703  0.7065957372105600 25.8031433979633604
 10.3810378740236384  5.2906136183950503 26.0202901941520217
  4.5867311404912803  2.3633694105094802 21.4475115116281465
  6.8917332980410491  7.6881608659959308 21.3037503955941609
 10.3004974407778498  2.3665531957569903 21.4279300091598301
  1.1743723217290500  7.7008077748110599 21.3198880777798507
  4.6337359003763101  9.0824887767461409 17.1539952701808609
  6.9991005319255191  4.5462369827192406 16.7673740320148390
 10.3459579661709302  9.0863523755523001 17.1220181993803813
  1.2749985518368498  4.5631291365830702 16.7510893037026491
  3.0825333147050999  9.8852597631808212 20.8604105255145598
  5.9498161208961893  4.9541371000564505 21.8100633995450721
  8.7899904937530291  9.8838916198266613 20.8700659943123412
  0.2358996851125500  4.9562680407656403 21.7933703031330026
  2.8310696211780897  7.0357001728021205 16.1134523450971194
  5.6932313547326396  1.9254433196021403 16.9968176655650112
  8.5420235965976090  7.0261741677181506 16.1093358938186988
 11.4173586051524989  1.9288734815625301 16.9787809876885198
  3.0735115777794899  2.9877959392983002 25.7216596775564419
  6.0151975570988991  7.8610642404963311 26.4510214890819277
  8.7808961475047695  2.9942906591901601 25.7265395082972894
  0.2974027543772400  7.8639205467287701 26.4414630707276395
  4.0898590279100997  0.1799836351893900 25.8207065873125217
  7.4875509921878090  5.5921703967753302 25.2418746350897116
  9.8078816066486390  0.1896230250548100 25.8081017933489392
  1.7619142682745599  5.5803081700634403 25.2432497264383784
  1.7052599009274296  2.5394528072690106 21.1761143577921587
  4.0376101597488896  7.1353690596590411 21.2972093637556519
  7.4251296150960293  2.5524410587406101 21.1540952506782602
  9.7586514567834293  7.1381420850170709 21.2831059596971421
  1.8136050165871800  9.7100684917453801 16.7738310374953521
  4.1497068333091498  4.4593244284185003 16.8471906694790405
  7.5241769640587091  9.7046776147869895 16.7238458577801019
  9.8652181585925085  4.4525446126438499 16.8558458044848294
  0.0336324095607000  9.8688176825324412 14.6155678177684507
  2.3850858953078999  5.0328797114541599 27.8867029841103609
  5.6748513623986492  9.8736916437186313 14.6224764649232100
  8.0834297467728291  5.0330416189805103 27.8874008230135502
