Zr Pd  O 
 1.0000000000000000
     8.8920519999999996    0.0000000000000000    0.0000000000000000
     0.0000000000000000    8.8920519999999996    0.0000000000000000
     0.0000000000000000    0.0000000000000000   50.3010400000000004
 Zr  Pd  O  
  64  32  16
Cartesian
  6.0524028480817194  6.0270193296809600 31.8613044809375978
  2.8174956714065198  7.2175500293280797 34.8972670090319994
  2.8414230273717602  2.8343078741229197 31.8757791082080040
  4.4460639690620400  4.4146439033200400 34.2110582093104014
  4.4460412054089202  4.4312480320196403 29.5715166343903988
  6.6323350101980401  4.4440273334719596 36.6662162579720032
  2.7543758848871196  1.6496381927105599 34.9964566358287996
  7.2912993748082791  1.5861174635664799 25.6085748515207996
  0.0000484616834000  6.6218212257542790 33.4892458304664018
  8.8920372391936802  2.2526463857336396 33.3824270449328040
  6.0506437334345593  2.8343373957355600 31.8758113008736039
  2.2597322841313998  4.4440837980021595 36.6661704840255993
  6.0746031897075206  7.2174965880955604 34.8973037287912007
  4.4460243105101194  0.0179937785861600 32.7960175206128000
  4.4460239548280400  0.0329201549144000 36.8907047693880017
  6.1376747813050798  1.6496206753681197 34.9965260512639986
  1.6007368862596800  1.5861446732455999 25.6086699204864026
  7.2677860327841595  2.8297935571635602 28.7313217639272018
  7.2962398878199997  7.2858176025913206 25.5936817195976012
  0.0000133380780000  8.8851747980626801 27.9180112903128013
 -0.0000008892052000  0.1878343726402000 35.8330932107223958
  2.2510219856742797  8.8840688046349197 30.3531776936368018
  7.2737424627368794  6.0633433621009596 28.7368216796408014
  2.8396651576118797  6.0270153282575603 31.8612672581680023
  4.4460506309840397  2.1956792767545998 27.1375499108703977
  4.4460232434638796  6.6914413690472401 27.1396861960392002
  1.5958116675774001  7.2858233824251197 25.5936731684207999
  6.6410696728776397  8.8841207342185999 30.3532194434999987
  1.6242919320076799  2.8297627906636400 28.7312297130239998
  8.8920476428945197  4.4435878882621198 26.4907434248120026
  0.0000211630837600  4.4402606602447596 31.0129135590168019
  1.6182772591143599  6.0633181086732799 28.7367869719231983
  5.9993396166922395  6.0929257963766403 19.2751920315576015
  2.8219046175496798  7.2675575959682801 22.4559516364064002
  2.8288253016212797  2.8830434327245196 19.3952887826199998
  4.4460085715780799  4.4700269821558001 21.6504956701880005
  4.4460264446025999  4.4748923573281196 16.9671308231991986
  6.6977948291217597  4.4483454917641998 24.0677046022319985
  2.8275978427631996  1.6250776337224000 22.4829034366488010
  0.0000158278525600  6.6487468038128803 20.7981581286687991
 -0.0000123599522800  2.2615266113044799 20.8796277050943999
  6.0631820602776800  2.8830629952389200 19.3952772133808011
  2.1942909606758398  4.4483601636500003 24.0677433340327980
  6.0701668560442004  7.2675133135493200 22.4559506303856011
  4.4460151516965594  0.0191003055370400 20.2075293531135998
  4.4460212872124396  8.8862154349082392 24.7017260729536012
  6.0644479328004000  1.6250865257744000 22.4828662138792019
  7.2818018629875993  2.7850337239316798 16.3410730131304014
 -0.0000021340924800  8.7117430598879189 15.2280699492167990
 -0.0000029343771600  8.8766188656282790 23.2759657296215998
  2.3025428017238401  8.8712656724832399 17.7455856941560022
  7.1857202178299202  6.1101967400557200 16.2165291471215980
  2.8927049139840801  6.0928919176585197 19.2752131579944006
  4.4460199534046403  1.9827329489817200 14.7819615946960017
  4.4459978121951602  6.6450174772040791 14.3783802544432007
  6.5894788763788394  8.8712858574412792 17.7455434412824005
  1.6101981185081999  2.7850117605632398 16.3409517876240002
 -0.0000089809725200  4.5331027530177996 14.2974820978320007
 -0.0000205406401200  4.4597339873632000 18.4277593444488019
  1.7062748730372799  6.1102258170657606 16.2164934333831994
  7.3648755920360394  1.8825234354445999 13.3760082918848013
  1.5271716951763998  1.8825597150167601 13.3760012497392022
  7.1758624000621989  7.3299509018392799 37.7648337274560006
  1.7162010706848800  7.3299303611991595 37.7647703481456034
  7.3743084586386791  8.8742876363554402 32.9755630588095983
  1.5177104629278799  8.8743254275764389 32.9755016915407992
  4.4460217318150397  2.8660308031560398 36.8729228487376020
  0.0000130713164400  3.0612896835341599 35.9140391533215961
  7.2114914296978796  4.4617873400110399 33.9433550684096019
  6.0668333146699203  8.8872237936050400 27.6262979539888001
  4.4460259110794800  1.6002432884531599 29.8346785973999999
  4.4460581892282400  6.0281199878775196 37.0415465221191980
  2.8637100665045598  4.4428815036512397 26.7603710835032018
  6.0283383766746397  4.4429131593563600 26.7603575022224014
  8.8920476428945197  7.2527182728291191 30.7413377410464008
  4.4460508088250803  7.2552841633542391 29.8551958886055999
  2.8252288222693598  8.8872483356685592 27.6262466469279993
  1.6806312621155199  4.4617400342943991 33.9433243847752024
  8.8920093181504001  5.9892265970321201 36.2266817463687971
  0.0000297883742000  1.5983314972731599 30.6698448728943980
  7.2712044932550404  0.0150264119132400 20.4736771858575999
  1.6208508857247199  0.0150568227310800 20.4736580714623990
  4.4460404940447598  2.8671765440562398 24.4522937788119989
  0.0000347679233200  2.7973413909459195 23.6175676374176007
  7.2800697801785201  4.4783774192684795 21.3696212019632021
  6.1809968586490793  8.7784180666379594 14.9512889796272006
  4.4460077712933996  1.7075311421438399 17.4882319922351996
  4.4460506309840397  6.0380038593576000 24.4409413370944009
  2.9666935445835998  4.2619574113818004 14.3305278690703997
  5.9253256437445190  4.2619266448818802 14.3305102637064010
  8.8920187437255187  7.3485806399844789 18.1659389101759992
  4.4460233323843994  7.3433739878563991 16.9605489321152021
  2.7110147714348400  8.7784518564355594 14.9513246933655992
  1.6119135731800400  4.4783625695416394 21.3697756261560023
  0.0000075582442000  6.0625624620943199 23.5308476384367999
  0.0000017784104000  1.4040457630659200 18.3028135731304005
  6.6940671920028398  8.8675575089581997 36.4025608417599997
  6.6773215907559198  4.4308182791464796 30.3059118183904026
  0.0000056019927600  2.2167796715479997 27.1752741818391996
  4.4460421835346402  2.2248375601498802 33.4475523044311984
  2.2147398348191998  4.4308158782924396 30.3059032672136013
  2.1979977014725600  8.8675252308094397 36.4025965554983983
  4.4460523204739202  6.6016424032301595 33.4158601341791979
 -0.0000049795491200  6.6721626000265593 27.1707938682064025
  6.6771083593489591  8.8856778214443199 24.0237077915752018
  6.6356502339451993  4.4804177005998795 17.7888199410464019
  0.0000467721935200  2.2860066083015198 14.8958119626111998
  4.4460227988612804  2.2415523059763598 20.9311027713679998
  2.2563542824971199  4.4804080082632005 17.7888244681399996
  2.2149333258707200  8.8856798666162788 24.0237027614712026
  4.4460175525505994  6.6885340237253201 20.8808686317512020
  8.8920184769639601  6.6069985307523593 14.8739707480328001
