Rb Sn  O 
 1.0000000000000000
    11.4376709999999999    0.0000000000000000    0.0000000000000000
     0.0000000000000000   15.2839220000000005   -5.8871430000000000
     0.0000000000000000    0.0000000000000000   35.3228579999999965
 Rb  Sn  O  
  32  16  30
Cartesian
  2.6517947409122398  2.5763012986584801 16.1163476131928363
  2.7085607027222101  9.0864426341493605 10.0022988154010388
  9.1744070803551594  4.7703781492820196 13.4118543444657288
  8.5474351317507598 13.4044758410095213  7.3940112948227377
  6.8360815003687510  2.8713479368368402 15.8346401673569392
  6.5165883468806403 10.4663417502092795  9.9329669919757784
  1.2703132631905800  5.0939869223763203 12.1474670495698778
  0.8676396473549700 13.5008379124351201  6.8019108279119989
 10.6601834185971605  7.1842251126102994 10.1537088921751497
 10.3881763869298798 15.0878549577289611 10.1855582769337190
  4.5786660050363404  1.1206851744929001 13.1479599804335088
  4.8589541392610398  8.2962652423023400 13.1429368345401905
  8.5253303456460312  1.7485748257595202 11.5150901647960779
  8.4507801779515805  8.7639323165292016 13.5247154088758403
  3.6498368766121501  5.5994781882511200  9.0567165035984409
  2.9211554386402496 13.5626103286256399 10.0456540913102401
  2.8208168685188100  1.8728626095889800 22.0502169260552670
  3.4573897125373199 10.5086617075135198 16.0294751649419354
  8.4262466024100000  6.2025232129498606 19.4364319913435715
  8.3713704869793606 12.7047531318958793 13.3159340050095594
  6.5805710215847704  1.7906471835273601 22.6290093296002155
  6.9881091932733899 10.1871543208550008 17.2899011779273764
  0.7986704912249700  4.8188437716224604 19.5038420158079049
  1.1218891229112000 12.4157514377077405 13.6087484291864058
 10.5764918067326708  6.9852593216927401 16.2899167784760905
 10.2907799289197701 14.1662864264637598 16.2882200449920624
  4.6664258820988200  0.1951218845345600 19.2487931430046189
  4.9394427457386900  8.1015335562964399 19.2872657402524794
  8.6346721928718306  1.7161195702317400 19.3872318421211070
  9.3669019395180602  9.6892134652874198 20.3777059741559050
  2.7299130044518503  6.5170062618964000 15.9035204469141007
  2.8079474298630300 13.5319547549133610 17.9172982461803372
  0.0723917648000400  1.7055643408593202 13.2508273841154001
  0.6362742064286999  8.8327056860310407 13.2190885010309369
  5.3330880359704498  4.6700181095396598 12.9716233280973885
  4.9135445416700998 12.5924774408838811  6.8820132971986183
  6.8821383708214201  6.6057199530747601 10.4169619697203792
  6.3295578350379902 14.5252105354097001 10.0556048347659885
 10.6820459548301105  3.3412091709060201 16.7732505123189277
 10.5760074213658211 11.0761839935390807 10.0971638844744582
  0.6081440552411700  0.7597249414581201 19.3829758498321212
  1.1597886464066700  8.6749875324501993 19.0168153360325967
  4.8580970001962998  4.2104603786475598 19.3385872625835589
  4.9602686858489102 11.9410160080735412 12.6636401501381677
  6.3512801454244805  6.4551597186841798 16.2171506313103464
  5.7911652726232195 13.5791319426291999 16.1782061795510401
 10.6222619347733698  2.6983666473899199 22.5494744986416542
 11.0468187890264407 10.6154061471537204 16.4646225155869175
 10.4232673903113007  2.4583121719244403 14.9352825249617389
  6.5652303597327304  3.0865787247075800 13.1008760236338286
  6.5019618532058399 10.6314369944218594 12.8334866982882296
  4.7508886217421304  0.5146197411285199 15.9691862286503969
  5.3908306605071106  7.8666033213599000 10.1907539749883700
  5.1640203864333003  5.1866470750543003 15.0087078555291900
  5.5050391223666999 12.9432874684792409  8.8317891390832184
 10.7955218338621499  7.2907494637737003 13.0693431905543687
 10.3188519767386193  0.0248813079806800 12.9402728198366397
  6.7629289016937895  6.2189088000476200 12.4208662648470280
  6.1085963284067395 13.5581399342798612 11.8574584377468284
 10.7891612306423390  3.0594208765449999 11.9568198122864970
  0.2459267398763700  9.9880752760754206 11.3652278179166686
  1.6604422702268100  6.6912029288207604  9.9425810497233567
  0.3297775641211800 12.4623252161830198  9.3739950682546471
 11.2143627120329707  2.3420296479209202 20.6011698537927579
 10.8817052567306991 10.0998609645480997 14.4251244361394093
  6.0426922393513198  2.8181705870222404 20.0586949410576594
  7.3779421933841398  8.5935758878465602 19.4969285671687196
  4.5986034668632794 15.2577780872229010 16.4952411342299072
  5.0689676215878006  7.9936964690724599 16.3758184368462878
  4.6979826451412396 12.8243282712158599 14.4988657296716692
 11.1062878156238387  7.4154227081160000 19.2449770969120166
 10.4686982770301391 14.7684738702990810 13.4644879343572175
  5.9668587649706701  5.2935941795002206 18.0655505771921092
  5.0757009785055001 12.2254025691745589 17.4748023281570397
  0.3943797030866700  1.7248035890337001 17.5778870851584905
  1.0371258012740099  9.0653720664409398 17.0160601914395073
  0.7863136889834100  4.6507846692556400 16.6060185032465988
  0.8415109742157300 12.1977333209818610 16.3393149711890686
