 K Bi  O 
 1.0000000000000000
     9.3325549999999993    0.0000000000000000    3.0217470000000000
     1.8176030000000001   17.6977839999999986   -8.0062139999999999
     0.0000000000000000    0.0000000000000000   34.9464060000000032
 K   Bi  O  
  32  16  32
Cartesian
  6.9145735315974406  6.1140610485271196 15.0270869315750719
  3.5962338894486798 15.5210062987730399  6.5886114478191908
  7.9452677822653985  2.7266179408519995 14.9456837838768006
  4.2519911340683594 11.5849264007848785 12.2248647711392131
  2.2216193080797200  3.3238303698433596 11.9528921393237404
  7.6694480219279892 12.0672035802115190 12.3255789723357925
  3.4140438932260899  5.6274144632087193 14.8432406171690996
  8.9259985802891997 14.6247531746887987  9.2717173254072591
  8.3047762285304803  8.5173994093198395 12.1173088589603424
  4.8277305712505498 17.5132748680187973  9.5761584533569817
  6.4212778770536696  0.4157207691821599 17.5821938745984028
  2.6587856326458099  9.4462164559640787  9.1368954599217620
  9.2873007625349189  4.9372727402117595 17.8156599069357284
  5.3206564233449996 13.9348723170279989  9.4409789313787211
  5.6589254637117703  4.4286472769437601 12.1276130085246017
  1.8625223992703401 12.8733137494031205  9.4922061018228909
  6.9623871167087694  6.1222694577241592 20.5303222985607903
  3.1406827535446400 14.9617133187579174 12.2231261945814040
  7.9930504709995889  2.7348081213315196 20.4484972449015316
  3.7964267050937095 11.0256684623820789 17.8595692725278745
  2.1609165037287399  3.2213104697103194 17.6110175991805527
  7.7992144639888998 11.9218785808511996 18.1979973618612014
  3.3535033401339303  5.5251731261958392 20.5012662068956537
  9.0557180506540096 14.4794724197884790 15.1440340190390685
  8.4863837367268307  8.4331075187954401 17.8938713949762018
  4.7338871465582999 17.1003988406367995 15.3111174915580222
  6.6029142286078804  0.3315416135418399 23.3585023712192132
  2.5648392671689799  9.0334021938482394 14.8719875705802913
  9.2486279158264981  4.4201657909395999 23.3482767845284549
  5.5301910057066994 13.6733990619875989 14.9556381030848105
  5.6202999561954394  3.9115859879543198 17.6600339794125318
  2.0720126162302002 12.6117656327363985 15.0070280983646711
  4.3071277968201098  1.9727758759924798 14.3814548943344125
  9.7046836637449694 10.8836909988653598 15.0961061934623402
  1.4038458713541302  6.6012859974266398 11.7719643085381822
  7.0269198455976198 16.6807081045477581  6.6384599049617110
  0.6671471685573400  1.2907848674167199 14.6374057728489930
  5.9890049286257696 10.3113393549701584  9.2868870851677805
  4.8886817214896299  7.8332765256834387 11.5389337498200621
 10.6804088596409201 16.5788626669629586 12.0942287276686518
  4.1712096506057801  2.2477063490086397 20.6821700296354223
  9.6983071579862283  9.8659041834298389 20.8316416344815423
  1.2679816785911799  6.8760502882510393 18.0728041769518839
  7.0205250485742487 15.6630494210683988 12.3735183247539613
  0.6864366105390700  1.0156340569897599 20.9152690201292693
  6.0447651351019394  9.9677968740979193 15.3754731018340820
  4.9080290510107094  7.5580151041064800 17.8166426551256407
 10.7362402188689394 16.2354750417007168 18.1827562883516123
  9.7998164248026391 10.5598036769035204 13.0136313179982004
  1.1921778139937400  7.0879409007035195 13.7660128745428842
  6.8361808103830706 15.9722658110277589  8.6829613603206024
  5.5813891495094401  3.7089711380519197 14.7726782158765513
  9.5106210098901087  4.8915510461812799 14.8178085758129097
  5.7338912862511595 14.0094635212084793 12.2212806180679205
  8.2368715822720890  2.4090927952603201 17.6158775371037706
  4.2211641812625702 11.4759730022121591  9.4462799190721523
  6.4305007714139890  6.8336263992911190 12.5136262721000406
  3.0135270170542503 15.3236643266355994  9.2626303222263626
  0.6729816959262900  0.8663212159607200 16.7230163324570427
  6.1511988859730700  9.8403287618157602 11.4085263263709624
 10.5339870107593292 16.4931446890038380 10.0114877888355913
  3.3454589390185299  5.7098716244658396 11.8843730294385015
  8.8959947056267694 14.6297747439209598 12.2359443410782518
  2.0472515711616799  2.9747755601886396 14.7541592232533425
  4.3829086997572100  1.7608325241436800 18.6883112025608114
  9.8889944638319687 10.5745115972745598 18.7871442362014527
  6.9254660264130203 15.9870540793381597 14.4560083188072319
  5.3970266649485392  3.9573568818243197 20.6580268904502589
  1.6587579687077900 12.5372080543455180 12.2267138101765820
  9.3262499896737800  5.1399118360782401 20.7031005565229407
  8.4773101989406889  2.0152294972295199 22.9621174958674210
  4.3791054467133099 11.2230518473340801 15.1856057484203717
  6.6708161306579790  6.4396052370270400 17.8598470726048824
  3.1714576975914399 15.0707573299847191 15.0015925403850900
  6.1913544807940095 10.0533946841036794 17.4582085130726163
  4.9020218522828198  7.9825667135489597 15.7310397082941620
 10.5740887983378293 16.7064454608854369 16.0611380987471115
  3.5277634914553198  5.8741536051577592 17.6999458697611232
  2.2296476527100699  3.1391672671413597 20.5697353208059823
  7.8292593706462998 11.9169966471347983 15.2338189112558720
