Zr  O 
 1.0000000000000000
    10.4693380000000005    0.0000000000000000    0.0000000000000000
     0.0000000000000000    9.8167539999999995    0.0000000000000000
     0.0000000000000000    0.0000000000000000   34.0062349999999967
 Zr  O  
  48  20
Cartesian
  0.0046588554100000  4.8722084460650201 15.7102599562112495
  5.2241264813273807  4.9430983680602996 15.7114290905705491
 -0.0153943239819600  0.0320748693494400 12.9939871110346985
  5.2186096636682802  0.0348726442394400 12.9926166597641988
  2.6183299246570404  4.9081807630875396 11.8342996838176990
  7.8530066719671598  4.9081772290560997 11.8341558374436495
  2.6104508055716202 -0.0006185536695400 14.6905782388633490
  7.8455147090009802 -0.0005703534074000 14.6899957120577991
  2.5710008742802999  8.1136566378071002 11.9018398072135483
  7.8067405734775601  8.1135910618903804 11.9016582139186475
  2.6602738616467203  3.2082433158396997 14.7563122911183484
  7.8918900026859200  3.2078584990828998 14.7571852311707978
 -0.0304694378483000  3.2067808158287794 12.7146439138142497
  5.2042593420716798  3.2073148472463795 12.7143609819390484
 -0.0320070695203600  8.1168815396636393 15.6996241661526490
  5.2163795899808996  8.1275494062354401 15.6809680055692979
  0.0303896614927400  6.6112589826101402 12.7154947498139492
  5.2648769137850602  6.6114230205694788 12.7152805105334483
  0.0321116582069800  1.6924461841028999 15.6992147310832486
  5.2678997257458002  1.6998079642625801 15.7033968178635490
  2.6644936330210003  1.7015599603489600 11.9002557967872491
  7.8978673665236405  1.7015419956891398 11.9002245110510501
  2.5762528176880002  6.6064526016841993 14.7569369856552992
  7.8135482605120599  6.6060463844036796 14.7567091438807978
  0.0015261154002600  4.9076784397853599 21.3586092138743489
  5.2347890833068602  4.9081040942387997 21.3583116593180975
  0.0111041986563200 -0.0358766036710200 18.5749489332970974
  5.2254739898213600  0.0298855368723600 18.5759871436516484
  2.6173916625854803  4.9073314175314593 17.5526653989093475
  7.8470383117601212  4.9066465026048798 17.5527531349956476
  2.6168567841070600 -0.0005921466012800 20.2726051364059465
  7.8506558868126408 -0.0006496727797200 20.2725238615043004
  2.6564392572174604  8.1223991444168799 17.6157564865801497
  7.8888263603069806  8.1205951195342987 17.6166579918699995
  2.5831663497296802  3.2033833354369201 20.6026278256468984
  7.8174479842236808  3.2024973733884199 20.6031124144956479
  0.0255075997965800  3.2050500239310402 18.5612175556664489
  5.2587086939156000  3.2088814048496994 18.5571310264064984
  0.1065157776656600  8.1065342882774800 21.3850970103781961
  5.3334106660403799  8.1062707084325787 21.3757133298922959
 -0.0053717126344200  6.5944019471439592 18.5463391477292454
  5.2106829090949605  6.6097609459497395 18.5600198560697507
 -0.1007001651000400  1.7074554119636600 21.3754559026933499
  5.1260619720688405  1.7070374145783398 21.3895508069761497
  2.5818375813507202  1.6917180754587200 17.6164964622537497
  7.8272817287137002  1.6739335530746198 17.6161853052034978
  2.6509579306141799  6.6123334263354394 20.6025309078771492
  7.8867076803759204  6.6127655598465198 20.6023768596325993
  3.9262273642338998  3.2186369023047399 16.7745309889534973
  9.1609616929030206  3.2179178250742400 16.7748115403922462
  3.8618217766453604  8.1145362189654993 13.6257563051140984
  9.0965133904154403  8.1143869061371596 13.6257947321596493
  1.3085656974213999  6.5976786814616197 16.7743259313564472
  6.5430063611596205  6.5981011945537791 16.7745398305746001
  1.3728961151631001  1.7023746527634200 13.6258726064377989
  6.6075443858738607  1.7024262888894601 13.6258858688694495
  3.9901641348668000  8.2000259120121992 19.6517767683130984
  9.2249273589088006  8.1997575219578387 19.6519369376799489
  1.2445397280287400  1.6163869557863000 19.6519216348741992
  6.4791580564328211  1.6165632646881400 19.6522093276222982
  9.2930599261319600  3.3529090891711801 22.1164779481442970
  3.7292910550636402  3.2750177600555594 11.1431215971932982
  1.1770070538729800  6.4635825089943992 22.1166265553912460
  1.5054015009468602  6.5416126470115792 11.1431334993755478
  4.0576774407472600  3.3530052933603796 22.1166194140818995
  8.9639534593807007  3.2749880152909401 11.1431454015577991
  6.4115627756358196  6.4636350286282998 22.1165010723840965
  6.7400580424346410  6.5416952059127196 11.1431283984402985
