Sr Si  O 
 1.0000000000000000
    10.1533230000000003    0.0000000000000000    0.0413680000000000
     0.0584970000000000   14.3583949999999998    0.0011450000000000
     0.0000000000000000    0.0000000000000000   43.0755430000000032
 Sr  Si  O  
  48  16  16
Cartesian
  7.7221303474068304  0.6786795487205499 28.2441514490712819
  2.7659179334939399  3.7167324304324496 17.6120265261238202
  2.8521358480287899 10.9417444100305499 24.8078268374576751
  7.9365923486356493  7.5317831091237002 21.2458299905481027
  5.0844373779598504  1.7817527629671999 23.6216588855832192
 10.1594877223799109  5.3685756044618502 27.1610015939778684
 10.2015713803117496 12.5538383776777493 20.0675298099135624
  5.1370535123405707  8.9951592826386495 16.2997298200171201
  5.1133734281766596  8.6189645953683005 23.2907921820478059
 10.1981684593162498 12.3542057148754996 26.9502699642015031
 10.1710784791692603  5.0330593988981001 19.7434609109949299
  5.1027893884467899  1.5363673616653502 16.1169678347494703
  2.3714304608954402  3.7680445958920998 24.8073188080050109
  7.5552115384346097  7.8472275707330006 28.2295174106772429
  7.4169517821065707  0.3495031488851000 21.2605506607126387
  2.4731889903854705 10.9029988554588506 17.6289408488043229
  7.7386463157270011  3.4553649868240002 25.4891453644704917
  2.6565569337466206  6.5112547283086002 14.8885470000024807
  2.7948687268113899 14.0088423146521492 21.8574110027937003
  7.8404121234362396 10.5903113492734988 18.3107334047460419
  5.1090471670678506 12.8220040905668498 27.0008302087136798
  0.0136414395049500  2.0041522404654000 16.1676352279032614
  0.0407555889070200  9.3253245451377502 23.3744676420176596
  5.0984461902591605  5.7394364351576002 19.8274270730863513
  5.0747691164089801  5.3632329892663000 26.8183296365644530
  0.0523074106714200  8.9898713729280502 15.9571787963073408
  0.0102703027567800  1.8045455663580998 23.0504224656736838
  5.1273982124480399 12.5766808611153493 19.4965345913583583
  2.2752281267752799  6.8266538173897002 21.8722596129598799
  7.4458446528485398 10.6416509392675991 25.5060180395783540
  7.3596474408965706  3.4166115351350501 18.3101997191338910
  2.4896564869101301 13.6797242099003995 14.8739410305653603
  2.5842794978194799  2.8883657523332000 28.2014335153754843
  7.7667906499355697  7.0531183000963500 17.6503237853214721
  7.8518326044177602 14.1747538560450490 24.8417151954939328
  2.7362488485614405 10.3984935301179000 21.1991720330519513
  7.5820318597476906  4.2851491256776502 14.9280363442764621
  2.3912293179775799  7.3387940756879502 18.2665283640763931
  2.3712542813138100  0.1050493202508500 25.4181844416901299
  7.3939371923148300 11.0973427470468007 21.8833113864792743
  2.8179557445609005  3.2610361715508001 21.2348513062654618
  7.8205871611176905  7.0196089650132496 24.8515086688470923
  7.8405375976550404 14.2532468939915500 17.6998227621340405
  2.6298435408762004 10.0732119885101508 28.1899694809189931
  7.4756003292470696  3.9598858192315500 21.9189547287303625
  2.4450976201729500  7.3052864636122505 25.4678074448949090
  2.3599755278118604  0.1836938392646000 18.2764992774785426
  7.6275291218479495 11.4699274466462509 14.9167529507243213
  5.2010889055405212 12.6803575188042004 23.5160484242410632
  0.0309235743405900  1.8362938442944499 26.6803416164999696
  0.1338115461091800  9.0399294761683997 19.7178624791269925
  5.1550145852542197  5.4917053028645997 16.4652886486535195
  5.1297776759514599  1.7900827858264499 26.8081959031106827
  0.0811328394471900  5.3710031783045000 16.3305796366129634
  0.1482867912442200 12.5889417817737499 23.3895490405271396
  5.2408562683894502  9.0188486242133497 19.7212987265658910
  4.9709734544834401  5.3395653288680496 23.3967374994953339
 10.1307013479629688  8.9874100568571489 26.7874940833153445
 10.0635322504989908  1.7694423058460500 19.7285095394121228
  5.0820421057728602 12.5683084809908507 16.3098885256226396
  5.0568047566604699  8.8667026196909013 26.6527944870733116
 10.1808917059933499 12.5220890946537491 16.4377475316770614
 10.0779989694341410  5.3184801693944994 23.4001891756006906
  5.0107309985244006  1.6780139334280000 19.6020148967234533
  2.5613426247988502  1.7150173839343501 23.2980578939626533
  7.6482871449902703  5.7370418856234506 26.9541134841150800
  7.6505231563281004 12.6434498387924990 19.8199866667287310
  2.5634736133387799  8.6214161477306011 16.1640167991843846
  7.6384775933744100  5.4697250410467495 19.8169129928485397
  2.5733716325713201  8.8887408894245503 23.3011922368255853
  2.5354030880625298  1.4317480753447500 16.1510422503375608
  7.6763451717347406 12.9267075170821499 26.9670535214502110
  7.6070133964037696  1.8821323024122001 23.3382156446696705
  2.5106901313237500  5.0139737895122503 26.9293216457914610
  2.6047428805876200 12.4762226376657495 19.7799327055895517
  7.7011325305994101  9.3443518594398984 16.1884776304386300
  2.5573454222800502  5.3021602740535503 19.7866163193798279
  7.6544859807785404  9.0562174958724508 23.3315426765397831
  7.6090356508310411  2.1728500284080501 16.1901289795280015
  2.6027247563522704 12.1856215018373000 26.9275627941653006
