Ba  O 
 1.0000000000000000
     7.9406450000000000    0.0000000000000000    0.0000000000000000
     3.9703230000000000   18.3381340000000002    3.2417549999999999
     0.0000000000000000    0.0000000000000000   38.9010570000000016
 Ba  O  
  32  32
Cartesian
  3.9749037347213201 11.6015854492640607 18.1177276470450899
  7.9344291014676198 11.6005640152002609 18.1190856180959372
  7.9401103170216203 16.0307628625495617 20.8863137621414694
  3.9704089737102501 16.0209888205089008 20.8851675099461715
  3.9698925208325400  4.6164038932226203 16.6462175280189300
  7.9410982978553593  4.5935268876762798 16.6840087699683934
  7.9408464266043701  9.1823913047830601 21.1838992663755583
  3.9714993157415703  9.1827076375945609 21.1793092334118001
  7.9487145056090593 13.9726663817132817 24.8305185505379100
  3.9623622256043003 13.9747473931596016 24.8365484737416580
  3.9697561840106204 17.8705379899129611 27.3670184561779521
  7.9408418991005405 17.8703819323926218 27.3646583614651817
  3.9709421716310502  2.3143348604555998 19.8074768503714509
  7.9407662766948803  2.3013974902999399 19.8810270462474286
  3.9690253838038800  6.8467534008223403 23.9159696126463004
  7.9420799420622199  6.8445396212858602 23.9137977666038068
  5.9549160592997907 12.5924249038238205 21.7034001719805012
  9.9255065563040112 12.6010610646497803 21.6573403480838103
  5.9565134858175099 17.2163026869394820 23.8968874564342784
  9.9246930440738588 17.2207955297694788 23.8971339595267196
  5.9553856008129200  5.7214251889893593 20.3575261724825118
  1.9859066355064101  5.7205134169668801 20.3562979364304013
  5.9567274561558694 10.2897221051457599 24.8828885296345774
  9.9269916721873095 10.3031360834040804 24.8531454299862027
  5.9544305642640794 15.3580370356825391 17.4163653701907890
  9.9257438185289004 15.3576031554321002 17.4142156329399604
  5.9713219078017108  0.9245091402123800 16.6898066307373512
  1.9707963307895200  0.9249872153657600 16.6925628678849627
  5.9468088041661193  3.2905560714972597 23.4146675272046707
  1.9932519437762402  3.2896930789112200 23.4131985584454938
  5.9580383559923495  8.0543110891807004 17.6189614567958408
  1.9820096688330802  8.0558131657366410 17.6224055943153601
  5.9539155674110003 10.7576857948194995 19.4101563840991176
  9.9257515541997385 10.7522481713258191 19.3846575191826282
  5.9563572728715304 15.0097830343287413 22.4963070289021800
  9.9243306916622807 15.0024881246235413 22.5122331215385323
  5.9813250880004096  3.5567511409718802 18.9914131518019502
  1.9603751396797602  3.5541260370897798 18.9923176337589581
  5.9545867042319598  7.6071617317409794 22.3765690855272013
  1.9864296577248499  7.6034268039891995 22.3725952452510910
  5.9568341644790905 12.6905825167789210 25.4224845404961641
  9.9255786994540198 12.6887241302793612 25.4777973699032714
  5.9547010200664001 16.7200779155770007 19.2669604102818290
  9.9257686304373092 16.7181463599227804 19.2649329844172996
  5.9565007325705901  0.8862981537779200 23.3699556244560895
  1.9836850685325900  0.8854133388124200 23.3713136279263516
  5.9627004152379204  6.1380923499502602 16.3692857866129202
  1.9779883150680402  6.1367589842271206 16.3700696753108375
  7.9565501436119010 11.3549533177592998 22.5425181930378926
  3.9533340774752501 11.3524116523869001 22.5410885791584903
  7.9408305465624096 16.5089953571192787 25.5106988986333256
  3.9703185431249701 16.5110303398492597 25.5128406936068401
  3.9702844183903503  4.1404865880704005 22.1181664654983585
  7.9400440460396506  4.1503937649638996 22.1588103224045696
  3.9680336495560700  8.7653876390632597 25.1645469763528524
  7.9453923551673400  8.7682032761576210 25.1619267956969992
  3.9685832452546794 14.0015790173030386 18.1665833551622704
  7.9409633648620197 14.0005416290626616 18.1600812703934089
  7.9397582886682798 18.2256893302268388 22.2950850988247993
  3.9701693060627599 18.2371545149849794 22.2668445200589282
  3.9713855744761002  2.2126774146265999 16.1303852327306991
  7.9412898804909009  2.2157481351649002 16.0389216186524699
  7.9392366875226994  7.3034479403903996 19.1681543850359404
  3.9712546924036705  7.2949104387253607 19.1620501607253004
