Na  Y  O 
 1.0000000000000000
     8.3504959999999997    0.0000000000000000   -0.3180340000000000
    -2.3364520000000000   10.3755690000000005    0.2837750000000000
     0.0000000000000000    0.0000000000000000   31.1373129999999989
 Na  Y   O  
  16  16  32
Cartesian
  5.7807741529090402  0.9409829713504200 19.4227762454239397
  0.4373030430239200  6.1287932027615408 19.7236755137142410
  3.1599140716612002  6.7968947666957407 15.8500838361517502
  0.1528673732558400  1.6091042488657201 15.8672013975299979
  3.3986553991612398 10.1847308481159295 16.5494490578242797
  0.3916457410256400  4.9969453105590302 16.5665681043573230
  0.3981269762271999  9.5446054496548811 20.4443480890172573
  5.7415873030068800  4.3568304951783601 20.1434583007680317
  2.6153863167671996  0.1908419908446000 14.5536113287008497
  5.6223992203779600  5.3786201617475111 14.5364845473059798
  5.6159274147420399  0.8309611639642500 10.6587085841656695
  0.2724569916222002  6.0187427588049305 10.9596097796654703
  0.2332706934433602  9.4345733704554000 11.6802812211762799
  5.5767416868430804  4.2467862765631503 11.3793767869871498
  2.8541307266124796  3.5786740257928797 15.2529735546541190
  5.8611731039313204  8.7664714952541303 15.2358553542369499
  3.1102065010212798  1.3312174594525201 17.7296999657207479
  6.1172135086749204  6.5190952358178302 17.7125880451568882
  3.1777731168555996  4.7688632237039403 18.5327600598634703
 -2.1657001871849202  9.9565934594780714 18.8336467004581216
  3.5558795756100396  8.1047575466190906 19.1078291038970107
  0.5488897879439598  2.9169286391837699 19.1249802077274538
  0.5779926038670802  8.3593738023677098 17.2937257797958530
  5.9214412800183993  3.1715371132556403 16.9927835883298286
  2.8362535538406801  5.6067241410531903 12.5703055315984198
  8.1797329327409205  0.4189469039514900 12.2694046995699200
  2.9038416998688801  9.0443243565567002 13.3733421545038897
 -0.1031706462826401  3.8565029195310605 13.3904568929617316
  5.4360567715748793  2.0162017342407603 13.8093390362540696
  0.0926058672752399  7.2040164271465512 14.1102329481643096
  2.4581487838265197  2.2708212064157700 11.9952125972147705
  5.4651602702987594  7.4586349655203499 11.9780809332049483
  4.5396928880350407  2.8353495866086802 18.7639669532162898
 -0.8038019318599998  8.0231108453341200 19.0648789714083584
 -0.6661922778595200 10.2614568320469601 16.9705022635622527
  4.6772885565575191  5.0736746146721403 16.6696268151970486
  4.8231308033415194  8.4087327704815813 17.3730388843425700
  1.8161001472508396  3.2209792934328902 17.3901876674512899
  1.6425866230761599  1.0089053887406401 19.4408166470343176
  4.6496415856895599  6.1966376996285701 19.4236898938097902
  4.7355958770611597  9.5654602395891910 20.0779233754033868
  1.7285538757677599  4.3776540546499803 20.0950488708311390
  1.9177502525074002  9.7479005096803508 18.6067392511098468
  7.2612431996144000  4.5600841566835202 18.3058256471644114
  4.4288240953185198  1.7931852076828501 15.8837452087119821
 -0.9146510645567200  6.9809440800274203 16.1846439784127405
  2.0134861079331596  6.7134927266473508 17.9901316937198423
  7.3569648333012401  1.5257636321858101 17.6892208923463095
  1.1909173905475603  1.9668276177961499 13.7300253809414201
  4.1979398111934403  7.1545902253455598 13.7128901605713196
  4.3714572985640388  9.3666747131181900 11.6622478396883587
  1.3644187307580800  4.1789081628525597 11.6793733257000305
  1.4743546066053197  7.5402242899087506 12.3390891848511703
  6.8178401990336805  2.3524517218131002 12.0381766830260304
  6.6802356474392006  0.1141175632489200 14.1325506162458492
  1.3367582726579998  5.3018948003506194 14.4334457672298484
  1.5852185131851197  8.5823921965280405 15.2193161636457202
  6.9286917775822001  3.3946235711486099 14.9184294265851900
  4.0005582101449599  3.6620603987320801 13.1129310259584386
 -1.3429163483258799  8.8498203086335501 13.4138406902928491
  1.2784566793292798  0.8101219373834401 11.0251377076859303
  4.2854830423368799  5.9979107951224204 11.0080087460759319
  4.0962881621071601  0.6276855062528101 12.4963202630383687
 -1.2471934126362401  5.8154750902816206 12.7972326199294191
