 K Sb  O 
 1.0000000000000000
    18.2368349999999992    0.0000000000000000   -5.6712119999999997
     3.4393650000000000   10.6591290000000001   -4.7239230000000001
     0.0000000000000000    0.0000000000000000   39.7110109999999992
 K   Sb  O  
  32  32  60
Cartesian
 18.4003570535790004  4.3611555561623403 11.6026559682925789
 10.2024035046032999  7.0828765282719601 11.6641673419313392
  7.9957969723009494  1.2106281637378500 10.9263180763179211
 20.4278083866115523  9.7552175930110199  5.5629363205457203
 13.2761490834760494  8.9225305925913290 12.0467994137102821
  1.6477826772063000  0.9850249270793100 16.8519570151956302
  3.4252717653949500  5.8560598123653600 11.1887093056285707
 11.4872170092092993  3.6842068511445598 11.0003750914277116
 14.9120245278520489  8.4272376419563795  8.7430310005563090
  3.6366131502969004  0.1918238173098000 13.4984547159293804
  5.1555891805834495  5.7874814279790305 14.5271778632955098
 13.2877013635222490  3.0073420334720100 14.3254492180096413
 18.3079443203156984 10.2855590388934495  9.2390174534516483
  6.4031860461693002  2.4379299766052398 14.0182985713222301
  8.2669717244866483  7.0955263562040010  8.5077135955453222
 16.5197435653298967  4.7466989168745899  8.2195540368254107
 18.2501837095880965  4.8036928532724303 18.1263671540846403
 10.1897911465102489  6.9749291838805796 18.3157658057284891
  8.4009955417322999  1.7362772478519002 17.2684040942785408
 20.0272599487613974  9.6726756430433998 12.4656382924527769
 13.6825248196126488  9.4491302578295997 18.3894646147311107
  1.2455649429601501  0.9026234644319101 23.7557688833167795
  3.2735526441845995  6.2965516226203500 17.7134166154796873
 11.4742301400592499  3.5762744295337798 17.6514626313998946
 15.2756083685033985  8.2222809249882598 15.2971661333841293
  3.3691782622189499  0.3737241987031800 20.0776167766303715
  5.1548352592927502  5.9133063701205000 21.0952477836635808
 13.4101472486154005  3.5636614821880799 20.8080748646480203
 18.0416587921354470 10.4680836188810709 15.8173884897311723
  6.7642526980960493  2.2325206730197800 20.5723717296478874
  8.3889689899991993  7.6518006102131100 14.9894168867343875
 16.5202515484509007  4.8720160581104999 14.7877249060594824
 17.0469572638955995  7.9087270831249201  5.8140405665482220
  8.7771556379115001 10.4291855791952397 12.0686905500238488
  6.9681285524113497  5.1289527637861498 11.3873305792343409
 15.3753786395639995  2.3967233827605900 11.1541631251842794
 14.6262993579896996  5.5394460543399902 11.4620212705575000
  6.3643204170115499  8.2579215348516897 11.6271529786710595
  4.6704722426235001  2.9287052685961203 17.3561458081537374
 13.0915542421493996  0.2391978897851400 10.5155843084185783
 10.1608597001573990  1.0426025573811899 13.9016459388564009
  2.2158661822463999  3.7454552722914598 14.1131594694526399
  3.7355945030977500  9.0791511441005692 14.8589462398242098
 11.7731729066065505  6.5553300126046201  8.4232340408907298
 19.6235726557397996  6.8747114134748397  8.5669715266118782
 11.0795874468121500  9.6763631687209504  8.8157724518365477
  9.6423946167936005  4.2489827198527799 14.3371726156845209
 18.4433350412321957  1.5790356954871201  7.7741366540270809
 17.0055895030555497  7.7301761198372096 11.9585678657085595
  8.5839709391172008 10.4178742180917308 18.8002647812611308
  7.0498011509245497  5.1197815426032607 17.8531426272246883
 15.3116706499471480  2.4020192644129503 17.6893491688196427
 14.7078526870324495  5.5306580288446501 17.9281623534370986
  6.2999747751145492  8.2615792149680392 18.1595726181032511
  4.6321988338729492  2.7491712138407398 23.5039085855929528
 12.8984093100921005  0.2301139668687600 17.2464571773899848
 10.5971813959598986  0.9834667756020901 20.5009634470272459
  2.0523209273826000  3.7838737577635797 20.7481997857284952
  3.2307569365097999  9.0783320966282108 21.5424792801754883
 12.0349027203209999  6.4102701392262000 14.9792155558666202
 19.4595356853571495  6.9131455678665894 15.2021228484056916
 11.5164832761048004  9.6175824425288408 15.4145442775418893
  9.9042668707430987  4.1047746174727502 20.8934210252296850
 17.9402688112292985  1.5797833267951802 14.4590315056194889
 12.3151196746373994  7.9599171237822599  9.7562570339062589
  0.8661593707096499  0.0732624320340900 14.4765697739186407
  2.2429345984286999  5.4412646039384107 15.4140294023777304
 10.4023136504543992  2.7370991107005005 15.3698512153945899
 11.2638363674635489  4.9720249095878399 13.4236600158094994
  2.9840627094467997  7.6407306783814493 13.3100489797985180
 12.7123264445438995 10.2808647584818491  7.8133021704057093
 20.3540930670703482  8.3668609243791003 10.1006327843199006
  8.5538847159185991  0.4797223081743300 14.9559697218972598
 10.4027410991374492  5.6417210366427302  9.4316249082693222
 18.7327383367087492  3.0612430104079196  9.2829228788874882
 19.7134722837975005  5.1356971144783197  7.2257012150288507
 10.6561600288460987  8.0068051399751994  7.5953839598523007
  9.4807834827724502  2.5942746698559600 12.8214052827308080
 21.2260721122234486 10.6238224472394300  8.1744338863011912
 15.3600181417796993  4.0797464496242997 12.6098225179288406
  7.3507067455518005  6.7395905383411803 12.6180958739046485
  6.3289123242122987  0.1878967810036200 12.6656021868986688
 16.8518137816458022  9.4740693153596105  7.2098528551523575
 16.2159273361264482  6.2961198213045604 10.4833710803226996
  7.8713971149547497  8.9496188503016096 10.5523195695310719
  6.2280679431884991  3.6748506940735197 16.3640903151594799
 14.8781497011956994  0.7242123489166801  9.8564168565550805
  7.2266758920973500  9.6447320968221604 13.0825311821618797
  5.4230571952861499  4.4154187303016696 12.2746167828440704
 13.6113628057065004  1.7559630602455500 11.9421335446538421
 16.1526342272552981  9.2878774620395408 11.0237444846127595
  4.4638608368651997  1.2739769662542000 15.8296934553099682
  6.1450858745483998  6.5155247744495997 10.2168133799539795
 14.6457405027622496  3.8729902584984002 10.0313191996470010
 12.1953072302413474  8.0654007170965798 16.4941474170290512
  0.4483484221146000  0.0339882316858500 21.1430812437220084
  1.9629330679818002  5.5229232318858008 22.0894366875165211
 11.0202561432709487  2.6529858985269903 21.7208002593573610
 11.2738748678152483  5.0183189991128998 19.8845206218305997
  2.9423823169883998  7.5978924916607706 20.0318291482873789
  1.3220545968425998  2.2901333718560699 19.2159047804365315
 13.1220365348432999 10.1809776342576903 14.3590116043713092
  8.9646917874829484  0.3781436867691600 21.5037545666855188
 10.4138217794740502  5.6873282518950292 15.8932407678806875
 18.6921399557963994  3.0176972707042200 16.0068063550415189
 19.4336514350522975  5.2163880001037999 13.9009004121624713
 11.2745519566098018  7.9219794716193306 13.9469461962322985
  9.3610857784871992  2.6999753896280101 19.5595925829354407
 20.8068886707232501 10.5849682165737899 14.8415824082767607
 15.5310873560585989  4.1435031770074797 19.0987970334927510
  7.0294722374100003  6.7863532031770806 19.2835763227271286
  5.5237918742749503  1.3717075354990800 18.2922122328384802
 17.2125722244346484  9.3857822014522796 13.4854572011657119
 16.2535036982102987  6.2438978703687305 17.0409774370703424
  8.0640575266556986  8.9033195378033394 17.3727309955426179
 14.4486631530868479  1.0146862985301901 16.2331801624703402
 15.4479763340369995  6.9847819497717305 12.9517607196556686
  6.7965040364443503  9.9350043757149908 19.4581276878290304
  5.4602576255510993  4.3634938492910704 18.8318244093775178
 13.8045526065727504  1.7098202237610001 18.7624553611242710
 15.3480649572479990 10.4722513383200706 16.6513628765956305
  4.8261710557455002  1.1855214381086701 22.1073410149995269
  6.3165981325363489  6.5793376754426092 16.7044720939030995
 14.3256328060225488  3.9195962341380000 16.6967702117948846
