Rb  Y  O 
 1.0000000000000000
     9.9022559999999995    0.0000000000000000   -0.7018440000000000
    -0.0810870000000000   10.7916380000000007    0.0405370000000000
     0.0000000000000000    0.0000000000000000   39.3678689999999989
 Rb  Y   O  
  24   8  24
Cartesian
  5.9315669791643701  3.3009864842497403 21.4655545456096277
  0.9398961512396699  8.6968082900756212 21.8367454006988595
  7.6626609094132503 10.5372468253423808 14.8518968921886003
  2.7520782957071099  5.1414271778441005 15.1825522247994691
  4.0881762087977398  7.9489528487454804 24.4050848692874744
  9.0798432333216610  2.5531364387386004 24.0338923327740162
  5.7799180426641907  4.3761183124601803 17.7780684856771387
  0.7882408074644099  9.7719362332963797 18.1492617507651026
  5.7330003225929094  2.8426843958398602 14.3014762007948004
  0.7413321804403800  8.2385045829200401 14.6726617424826298
  4.0412570886258292  6.4155207667036205 20.9284863906955501
  9.0329271933904209  1.0197029537838000 20.5572971744488484
  3.6773560040733901 -0.1576758674033400 15.3370755214947287
  8.5879461175462488  5.2381472334191006 15.0064003781984496
  6.8517356950233292  8.5991791469155014 21.0857898721939385
  1.9411512282690000  3.2033557223439200 21.4164433555737652
  6.2248966461878394  0.1576736011593600 23.3289587632293269
  1.2332318610719100  5.5534950832361005 23.7001409217251151
  2.9694377277461994  2.1924632776560804 17.6207706475603594
  7.8800228762098499  7.5882750472586205 17.2901092047161313
  2.1585063357502499  0.2543875055007001 23.8546636456459780
  7.0690926059932790  5.6502081242464000 23.5240084506798475
  3.8895999721749299  7.4906474149278202 17.2410056179800968
  8.8812710452716281  2.0948325157502601 16.8698100436349492
  3.6905349529171199 10.5399804551641605 20.4351199527198482
  8.6822041778308474  5.1441611314150206 20.0639264634983405
  5.6129996066746193  7.0856537519939611 13.9385106322748502
  0.7024191982235100  1.6898305432551399 14.2691669781388999
  4.2081587078084697  3.7059830609258606 24.7680466097559382
  9.1187408345105094  9.1018016292603399 24.4373940639343985
  6.1306350016301998  0.2516622931565600 18.2714278224991880
  1.1389604993294700  5.6474855018953809 18.6426181551831291
  5.6673929216432395  0.8754975326812001 20.3239408552574901
  0.6757183300503899  6.2713194464234601 20.6951288280232895
  7.4428422606281703  7.9391526385285403 14.3789357871607884
  2.5322584708143596  2.5433313722845599 14.7096026145944005
  3.8806934270047795  8.0817038094421196 14.4720289888724398
  8.8723667231956487  2.6858829748636603 14.1008336315049494
  1.8621763875829500  0.6587983120661801 20.4816562620271441
  6.7727592131189995  6.0546161249860004 20.1510036642389316
  3.8642475781808399  9.1117170941711212 21.9651109551521877
  8.8559204758488583  3.7158965833418001 21.5939199575401624
  0.6877921082973900  0.0003396128478600 15.4599932316056385
  5.5983784759412396  5.3961604474263201 15.1293372430744277
  5.9404779479149195  2.7099344063906403 24.2345300877449077
  0.9488021120048999  8.1057506005647610 24.6057193113018897
  7.9589939321451295 10.1328353712786203 18.2249009063740601
  3.0484129483050899  4.7370228462614206 18.5555553590684887
  5.9569216458121197  1.6799174525047200 16.7414569230194381
  0.9652476921416100  7.0757335387624600 17.1126416823551004
  9.1333745216481290 10.7912975238211004 23.2465657841644386
  4.2227894153497196  5.3954801425668002 23.5772185449982494
  2.3783276419270498  2.8524838506421397 24.3276151209947500
  7.2889078653069603  8.2483053327188802 23.9969623257898732
  4.1537789856892795  9.9161357189980812 18.3826236791223003
  9.1454496781022687  4.5203187694093003 18.0114320619357819
