Ba Ag  O 
 1.0000000000000000
     9.5378369999999997    0.0000000000000000   -1.4157090000000001
    -4.2390390000000000   17.6035539999999990   -1.1860230000000000
     0.0000000000000000    0.0000000000000000   32.6740789999999990
 Ba  Ag  O  
  24  24  38
Cartesian
  7.8570678412614301  5.7556735069675202 18.1088028951253079
  2.8928923720839297  5.8688671757561606 17.3909885314222521
  5.1330052207473900  2.6457481528724998 19.6431996603677881
  0.6187876089483600  2.7240265805864596 18.6104919644635984
 -1.6092962199608700 14.6004762334766198 17.9073460691838982
  2.8928336145933304 14.4970007827092182 18.9102259907896801
  5.2735981195442996 11.6430693034863797 17.8800168579689505
  0.2975625783175198 11.4546776528982406 20.3395393772415787
 -1.0098835677533100  5.9206425727454199 16.0044278412847092
  4.2777253371773707  5.8336391195268993 13.5880730515328807
  5.9419306007126105  2.8752231538213797 15.9785138833557703
  1.3854613050432301  2.8768657414451200 14.7181788493437100
 -0.6413474249168707 14.7262372555014007 14.0901003508173694
  3.9091131182039693 14.7256146177964187 15.3464569069816097
  6.3051345097633806 11.6826584641835982 14.0769506597668190
  1.0187953877340896 11.7662829152118196 16.4840082220033608
  0.0177852294919201  5.9639469635143394 12.2000352251949700
  5.0156548929413409  6.1636256608561997  9.7355057786256101
  6.9074042528637607  3.0014158149902399 12.1593594035240695
  2.3990288411554195  3.1118730113095801 11.1507529681318101
  0.1608853397267098 14.9493492758214384 10.4304010998662609
  4.6841990382209389 14.8755780620736395 11.4628697562283790
 -2.5591152643668296 11.8389722145307790 11.9760832551037772
  2.4029101748978396 11.7309906060104598 12.6810991231958905
  7.7218346072238901  1.0018154415713600 18.5075277083286096
  2.5202904928814998  0.4317051574075000 20.6349015678343086
 -2.1241547817897004  9.3077698594296603 21.2317918100084810
  0.6572035640575502  7.9871556392381597 18.5887236046211228
 -1.4827860482041202  9.8561344733373204 18.2403887019366806
  2.7512495042369398  9.8263952052452606 19.0416719895150877
  5.5706764631127008 16.3165131019617604 17.9780114521833632
  1.1302803205472998 16.4402724238611988 16.7592647900654299
  8.3933966665484991  1.0321741787286800 14.5107539230930591
  3.2336757224157298  1.0898904231218598 17.5278357957303115
  5.8619090213475307  7.6977014570293996 16.0396320497865297
  1.6185848560296598  7.7040783444658993 14.6674275891906678
 -0.5634802521503099  9.9025421946408994 14.0372679052226079
  3.6815604588142796  9.9000396734042599 15.4091680035993797
 -3.0961804850576997 16.5732567121987984 15.5563479887814093
  2.0659136106879301 16.5156195077630770 12.5330430069316279
 -0.2739679382498700  1.2865332115408801 12.0872418166521705
  4.1649733662456292  1.1627474843104399 13.3009286469609478
  6.7833683549360098  7.7485433375500401 11.8439930643893696
  2.5434974584995302  7.7751377307200000 11.0224307282084801
 -2.0630268718694698  8.3274351546267997 10.2807607850786784
  4.6335206675841594  9.6129860878544804 11.4908171220009301
 -2.4254668904386198 16.5994541452260584 11.5597855120719295
  2.7767492068812896 17.1711232240966183  9.4522006395802709
  7.4338134761830794  3.1641596155069998 18.3217810829982604
 -1.3369117653679801  7.7891385413583594 17.9134502135428093
  2.6980612960532095  7.8230854109274990 19.0274337871764274
  0.3666678648163799  5.2316502073533604 18.1243313868314893
  5.5955082164566790  0.9249942360575200 17.9066181941870077
  0.2937278170000800  0.8087915917836599 20.4741233349151805
 -1.2140984483985302 11.9869749749634789 18.4754245407002990
  3.1886355392337595 16.4774740145293990 17.3391395193725302
  5.2510061885674197 14.2089311200225605 17.7977641730780078
  1.0969808148826798 14.3261639242764982 16.9300590169469096
  2.5224991326016197 11.9102669603018612 19.0253466708871812
  8.3250246833171406  3.2020188749526399 14.2745050434305298
  3.4648281702854398  3.2837901998512802 17.8999989593006283
 -0.3567728695699499  7.7439903543434792 14.0545496361189706
  3.5804670778059897  7.8020349050187603 15.3401635621747090
  5.9908211740985395  5.5448323960342591 15.9136693565308320
  1.6510640072055902  5.6116880535931593 14.6401251344102104
  6.1831608976233889  1.1036495369638000 13.9286691728833496
  1.0695270689815499  1.1100433238121399 16.5859528075278924
 -0.6977302023917105 12.0554811417454193 14.1569459952306911
  3.6512108523445193 11.9899800776668197 15.4380135779184009
 -0.8906477387363698 16.4996611819199188 16.1356445246370086
  4.2332531686818289 16.4956685198371815 13.4829738571021487
 -3.0273084330595199 14.4048426568084196 15.7925571139428076
  1.8299943320937304 14.3191337689510600 12.1766665117984996
  5.6568243957394495  9.8571670978149601 16.0300086099869112
  1.7256659321552998  9.8014124174440003 14.7333860205059288
  0.0418404660731400  3.3952226330622199 12.2669607097336701
  4.1995712364972295  3.2751996654992799 13.1285532904178694
  2.7874146017602497  5.6933410826089199 11.0412775694070895
  6.5289704696893489  5.6180001599509390 11.5952947810508888
  2.1093716257156800  1.1259166244894798 12.7211905469929611
  4.9282719105835193 12.3704279106792807 11.9571785621605997
 -0.3034621466663103 16.6795610540939983 12.1559315637579779
  5.0030289799185601 16.7940966418040567  9.5961329758326173
 -2.1376088033759100 14.4346481142635206 11.7517405429955808
  6.6196401421412405  9.8097484044051591 12.1801254457773105
  2.5964116763867100  9.7801548937402192 11.0375330403575607
