Rb Sn  O 
 1.0000000000000000
    13.7557220000000004    0.0000000000000000    0.0000000000000000
     9.5102469999999997    6.3541730000000003    0.0000000000000000
     0.0000000000000000    0.0000000000000000   35.3228579999999965
 Rb  Sn  O  
  16   8  14
Cartesian
  9.7676145383876509  0.5771816221636500 16.2513065986963170
 13.3153917740664589  5.6104176857672998 13.0534851700695604
 16.0531862897845983  5.1794443770407801 16.1574558843617986
 10.1870811740075897  3.3962072965271499 13.2215258959757982
 10.8252603291011305  6.1223405533028901 16.2112321098381607
 18.9418313533628222  4.4757200985411600 13.2397231727316598
 15.8770125185770290  2.5517396110790500 13.1642509414145383
  7.8509328374976395  3.9028786942451603 16.2312721800958784
  9.7698510064719812  0.6229140667044401 22.2694275803603396
 13.2722458377228385  5.6259230116384398 19.0715273817602409
 16.0370785262107596  4.9345287516783998 22.1013260991383369
 10.4194217638650386  3.3172701043071799 19.1654045882382569
 10.8749079633220109  6.2551657711091506 22.0830896140100990
 18.7999411172223603  4.4806832159879999 19.1116078755042587
 15.6110020625613597  2.5822574967051799 19.0915095225308384
  7.9243700692920491  4.1600468807782498 22.1586349636432800
 12.8532210951738204  0.4531735183539200 13.3142254383680978
  6.8245816714873397  0.9978270487211600 13.0776477710844592
  4.6673224360087406  2.1208770555879202 16.1767298018294987
 12.6615947586837123  2.6876154673426100 16.1511362718370179
 12.7462299732393500  0.3232199419515500 19.1459590016806800
  6.8191846877534701  1.1379009164606300 19.1714688164996971
  4.8286333508533499  2.1698933367351101 22.0085318914865979
 12.5344434841604091  2.7458513358041499 22.2452074030868978
 16.1404953982308896  5.3405968157896897 13.2996208494994193
 18.7902756531354811  4.1183195985628203 16.0680113433341987
  6.4757752519941798  1.5296310433643401 17.1148388565650400
 10.5628413371707204  6.2688618733019998 13.3784268521545791
  5.0633602502445498  1.5974188223881303 14.1541079831200776
 12.4915524701212597  0.6986556817809800 15.4048052568122973
 10.6959563108132016  3.2242591178512403 16.1059692865409971
 12.8921776857733299  2.2199418532861501 18.2083352830140583
 16.0731301336490411  5.4704604171023803 19.2168837682588780
 18.8347660227437608  4.1823212436045596 21.9445233405047979
 10.4867733641908583  6.2521347670464200 19.2548194580651355
  4.9166793208664998  1.7417849339891001 19.9180654594165780
 12.4143777043559087  0.8892978374228900 21.1689404070845413
 10.6017248988689587  3.3360714667968798 22.0233032042450390
