Ca Si  O 
 1.0000000000000000
    11.5877719999999993    0.0000000000000000    0.0000000000000000
     7.7179760000000002    5.4650710000000000    0.0000000000000000
     0.0000000000000000    0.0000000000000000   40.0672380000000032
 Ca  Si  O  
  36  12  12
Cartesian
 10.8611761808351197  1.3346070634771199 16.4840547728047824
 14.2740003296744007  4.2118256728917700 13.0303085405799006
  8.9257066325361194  3.6919681172119101 10.4458554945897024
  4.7960795389995603  1.6382662464448501 13.5920884798712400
 14.4291635794474011  3.8614293120334597 16.4835843834306601
 10.5821582375742800  1.5975447454575200 13.0301490729726606
  5.1306306549657599  1.0045394004710599 10.4458102186107613
  8.4384794781111996  4.2180265610512100 13.5918532851841825
  1.9461890758539599  1.3427181579031899 11.6918071624014601
 11.4563550524931195  4.2772370530400599 15.0056834748369017
  7.8419805926271593  1.1985016015998100 15.0036973418492412
 17.2449576569351208  4.2844361364176500 11.6017400181012622
 10.8694953210219580  1.3155578480473900 23.1782164406263824
 14.2252201041403588  4.1331290330467398 19.8590208016740633
  8.6504669434710806  3.8475158970759797 16.8894214304088628
  4.8785710969606804  1.6168902770368700 20.2086483218068231
 14.4443527493381190  3.8475459549664799 23.1777620781474631
 10.6724420864753995  1.6169082024697499 19.8586077084502826
  5.0756094379857997  1.3155863210673000 16.8890307748383641
  8.4313387606490000  4.1331128017858703 20.2082408379963603
  2.0683054939929200  1.1698112358161401 18.3686309349957035
 11.4250915110836004  4.3213895802518998 21.7472194428525611
  7.8621775417491593  1.1697882278672300 21.6986234925718797
 17.2189396785237996  4.3214030789772702 18.3200237658883829
 10.9245035733206777  1.0045298912475200 29.6214273807168631
 14.2323384137491189  4.2180464539096505 26.4754247820538211
  8.6352934384830391  3.8614416084432097 23.5836716468264420
  4.7882799877581199  1.5975257816611499 27.0371245868691616
 14.7195944561010794  3.6919912344622396 29.6213740912903241
 10.5899892448532000  1.6382448780172401 26.4751254797859623
  5.0673136218502002  1.3345521941642799 23.5831559814733822
  8.4800940633998394  4.2118456204009203 27.0369378735400829
  2.0480534114969600  1.1984767901774700 25.0635446648745592
 11.4511026700075611  4.2844388143024394 28.4654623220569221
  7.7400430090740402  1.3427236776248999 28.3754027905319433
 17.2502959692375200  4.2772441029816495 25.0615557271802416
 13.4709943519482795  1.4313755454542401 14.8992628873469997
 11.4768052159375991  4.2478921357027204 11.7852559815888611
  7.6542354512346797  1.4639758416341500 11.8533234075204010
  5.7650860265885600  4.1312868669140599 15.0973388844514211
 13.5011505206334395  1.3893373995615899 21.6113338092098424
 11.5768653114797200  4.1060127170124900 18.2828501838167412
  7.7072612989755598  1.3893493134163701 18.4559025881006420
  5.7829924990538402  4.1060004752534498 21.7843810047527988
 13.4481101533757990  1.4639903240723000 28.2139153938243616
 11.5589781672430796  4.1312875227225794 24.9698979135314438
  7.6771217857605594  1.4313523189024902 25.1679618904644613
  5.6829270750820404  4.2478784183745102 28.2819816177387615
  5.7958106527022792  0.0088175641542400 15.0237233480740215
  0.0694805171608800 -0.1573859018442100 11.6464562577264008
  3.9840823112823598  2.6146261013186098 11.6463721165266012
  9.6439703578864808  2.7336955159704597 15.0236195739276024
  5.7904668412659595  0.0057665243163600 21.7112386624561786
 -0.0034213483004400  0.0057866357776400 18.3560209738523419
  3.8546132207265202  2.7376693330466901 18.3559933274581226
  9.6485176515526394  2.7376645784349205 21.7112506826275826
  5.8633783714953989 -0.1573830053565800 28.4207605066374640
  0.0019402680883600  0.0088095851505800 25.0435278741145204
  3.8500914497726799  2.7336778091404201 25.0436260388476200
  9.7779482157954796  2.6146336977673004 28.4208602740600824
