Ba Bi  O 
 1.0000000000000000
    10.6592669999999998    0.0000000000000000   -1.3723250000000000
     0.1692010000000000   10.6579239999999995    1.3723250000000000
     0.0000000000000000    0.0000000000000000   37.7778240000000025
 Ba  Bi  O  
  16  16  40
Cartesian
  9.4654651078250893  0.2847298501956800 17.2543803149302910
  4.2228083675707406  5.6013772584891193 18.6167785428568209
  2.8762202872569405  0.6259621515811600 12.7966469336300204
  8.3223128346992485  5.9146804700325992 12.8039189723936104
  1.7112605651909403 10.3014000289970404 17.3805731914900612
  6.9618755381575905  4.9622815603212400 16.0035728224556308
  8.1432461326116599  9.0490788247449601 14.7652807608780616
  2.6754173711598801  3.7818496521377600 14.7251099625978004
  8.6131873193118995  0.2100808978657600 23.6105345712959007
  3.3484347383398902  5.5568933218771601 24.9738850705269719
  2.9701230729760195  1.4696587628317197 19.1553946223747040
  8.3784451045979491  6.7948864394205994 19.1546083772222282
  1.2613159965585901 10.6268620133981990 24.4079341949649518
  6.4891654256265596  5.3178291589065596 23.0291686396079989
  7.7836219010599708  9.5452838424240785 21.7730036149031676
  2.3676447591466800  4.2137348445315599 21.7726380430040827
  5.7449574732742903  2.5261682176069598 12.2967670479022892
  0.5429799263505000  7.8184911525344392 13.6905743080343001
  5.4629572627051193  9.2367699821884788 18.9871428475236819
  0.0417297726498600  3.9093020099747999 19.0038843348457824
  4.7143264394662898  7.5365615652905200 15.3970081188166503
  9.9319593439324496  2.2081889484877202 14.0481850344632111
  5.7010495903854297  1.4070573146329199 15.6623797191253935
  0.4850044974506900  6.7188126292311194 17.0594579961082928
  6.6198845876854504  2.6455866323328001 18.7772894212192938
  1.3678706466138699  7.9785922486983996 20.1600585390638720
  5.2970394186550100  8.3991843048217998 25.4621786409134536
 -0.0956490304373300  3.0499705439539602 25.4738214882107101
  4.1934366253802402  8.3611912570843199 22.0912044164744827
  9.4414622876749092  3.0241834836774801 20.7449908005619896
  4.9063730631459199  1.9238237058720800 22.3740426025612003
 10.3159029591777500  7.2380238416566396 22.3661647435661521
  5.9951554345132996  3.1287393168060795 14.3401936651553825
  0.7602797364028799  8.4434859909333593 15.7304999348343220
  6.0099399430148202  7.6562134951311993 17.0788323213967388
  0.5631029859608200  2.3125747877285199 17.1051937372239813
  6.2838007942044198  7.0236029305588392 14.0958302285412600
  0.8418643928698401  1.7201530163961201 14.1095625935989997
  4.9178310475754294  2.5060974282886397 17.4428050925411107
 10.3301758037248614  7.8343077249089195 17.4394691476345010
  9.1533364082318016  8.1891262149134008 12.3290024714888009
  3.6989710815871799  2.9143054030409998 12.3247886610188200
  1.5680519060227400 10.0615659375966793 19.9679826648510215
  6.8136330599940900  4.7302775259459597 18.5908733592134894
  3.5917622280096602  1.1985496329287999 15.1791372750442211
  9.0357874754630494  6.4910722973520398 15.1821033110290102
  9.4358268844366595  0.2367684461410000 14.5399964431279827
  4.1889821120665305  5.5774793152416393 15.9104742824347323
  2.4210790412029097  7.6693551417401595 18.2309213344399517
  7.6696803984657800  2.3434855383887601 16.8456561675067817
  5.6108678341481601  0.5108745842727200 12.7730962682444016
  0.4391104841076100  5.7986924147253998 14.1732317814138113
  5.0386245009948603  3.2095336281143996 20.6861206353222187
 10.4494197237726496  8.5363812025720396 20.6894053420811730
  5.9188101151153294  8.6145962962723601 23.4225259105580932
  0.5173584301034300  3.2790166846815199 23.4314337410080711
  5.2881860319006293  7.5398342940131995 20.3281984588729543
 10.5347762461689403  2.2141825386283598 18.9746560168164180
  4.4243813957596698  3.5018201595845602 23.6764977016028695
  9.8445657290584005  8.8144672226838399 23.6751728887179240
  7.5486699880158499  9.3996567399483197 19.1849987501805721
  2.1298484348682400  4.0720431804928001 19.1847019328224810
  0.2518156466480800  0.9976527747530800 25.4497208564769224
  5.6405147336839807  6.3449984147022001 25.4505604520656199
  2.9367828181875200  1.4355445599548000 21.8667835520944820
  8.3414831885877803  6.7677037239963198 21.8626604881701816
  9.1924537617585198  0.9181168445314399 21.2287092788488394
  3.9385594446427596  6.2566364444576799 22.5915672269674843
  3.2759588307451297  8.3140680987522391 24.9912826100998515
  8.5454861323610185  2.9645973753367598 23.6213490872450613
  5.1693279151608404 10.2897169192874802 20.9187267339445633
 10.4182887006810301  4.9715484120807600 19.5584383741504304
