Ba Ge  O 
 1.0000000000000000
    10.8910769999999992    0.0000000000000000    0.0000000000000000
     0.0000000000000000   22.8326549999999990    7.7656320000000001
     0.0000000000000000    0.0000000000000000   38.8281599999999969
 Ba  Ge  O  
  72  24  24
Cartesian
  8.1682798688428804  4.5904087056193497 13.8271641621926378
  8.1683189678093093 11.9824526777036997 21.9189117036556809
  8.1682341263194793 19.5578739218488487 21.9445587128678383
  2.7230052596385894  0.6055491814594500 18.3363961876300792
  2.7229668141367798  8.0236831151060990 18.3094846229030388
  2.7237338726898899 15.1422016983320997 18.0549357481382415
  8.1681451462203896  7.1086560178987499 18.1694542030848005
  8.1690437689836592 14.9949507096653978 17.6388066694425589
  8.1680315522872800 22.1908715366882987 25.7724813240115189
  2.7228075865910397  3.3579428591718004 14.5219202342323204
  2.7227255767812300 10.9337538567378001 21.9346574544115178
  2.7228151014341697 18.4903310823848983 22.1417138205849575
  5.9579387322836688  2.2529485290175497 16.6265451227635204
  5.8864487226587405  9.8662208353154988 16.4709982713023990
  5.8709980962726895 17.4258261276686994 24.2607673310284788
  5.2533625057442102  6.0765332478097500 15.7831395559487984
  4.9814691644761497 13.6552755016246508 23.5056729195993590
  4.9571374093504490 21.3511629751825502 23.5607330365747174
 10.5572603711438102  1.7310780598879498 12.7877088477196779
 10.5067843678580690  9.2015142996900003 20.3989652088767990
 10.5250007832482702 16.6385593798404017 20.2705844019033599
  0.3868153323074400  5.3601244482022494 19.7398703944511986
  0.1638871841236800 12.8172341805869987 19.5102585171648002
  0.1938723884093100 20.4650205565094971 19.6795881229247982
  5.0585055639740997  5.3598442915254001 19.7392253034009570
  5.2823645725090502 12.8161338749425475 19.5105672786931166
  5.2519665964051203 20.4647732788558514 19.6801147880870388
  5.7792760596371702  1.7307189022248000 12.7874523488947194
  5.8295375087060100  9.2016391943128486 20.3992018276838394
  5.8117641423281698 16.6385730794333995 20.2712937923865617
  0.1918614599520300  6.0760528487485503 15.7827214543219192
  0.4642775729160900 13.6554351018830982 23.5054546276838394
  0.4880279623515300 21.3508896683021980 23.5607379289228795
 10.3789519852321188  2.2534376044876501 16.6258265688345581
 10.4505195393252901  9.8662975530362989 16.4713377070771188
 10.4650237311200396 17.4252932135009999 24.2604094130496009
  8.1685475715155391  4.2886569036703497 22.0703359364006388
  8.1681053937893395 11.8638676307364008 29.4838692115161578
  8.1682864034890805 19.5642193449998985 29.6290713869337594
  2.7227729529661797  0.2257944085605000 26.3662309854719972
  2.7228060618402599  8.1126740729482503 25.8368288262335959
  2.7227614084245597 15.8629114851619502 25.9977431272204775
  8.1684194924500204  7.1985810596569495 25.6963997188684772
  8.1684577201302897 14.6160176840198979 25.6689279414489597
  8.1644745265390792  0.0788502907770000 25.9500948400511966
  2.7223093198182897  3.2392109982328496 22.0852618693862368
  2.7227766559323596 10.6291639557722988 30.1787094630067187
  2.7226741708977897 18.4972402437878998 29.8256156500377614
  5.6079526659594299  2.4035054578016997 24.4959320234764775
  5.8328579802617693  9.8616104656178987 24.2657131843929577
  5.6391464530597499 17.5897718970182986 32.0908988843251137
  5.0622046093663799  6.0201984664547989 23.6067226624051187
  5.1117095642267998 13.4906833398119996 31.2179466408768000
  5.0792812735485295 21.4163282858587500 31.5000068201279966
 10.4272454166870592  1.5667480169546999 20.4995933555212808
 10.6990242927358494  9.1448737890845990 28.2228667839014378
 10.4032812354101090 16.7036543659391974 28.2094898615308800
  0.4411780342421700  5.3560942562682001 27.5343617349964767
  0.5120181733025100 12.9685566882932992 27.3789250001971176
  0.4254674378481300 20.6286544317917979 27.5097840533107174
  5.0048341186965599  5.3557558763210995 27.5346419189990357
  4.9335650890239595 12.9686859211205991 27.3794713900646407
  5.0197135080939592 20.6288827583417991 27.5095685570227211
  5.9092879645923597  1.5661760589469500 20.4994314420940817
  5.6376444646306805  9.1447564292378996 28.2230000421465554
  5.9336987889370798 16.7038587182014489 28.2098587290508789
  0.3835367913981300  6.0196753703287493 23.6066682253247961
  0.3333470056159500 13.4907522944300986 31.2177611975846361
  0.3659773257725700 21.4157903485069490 31.4984815723468756
 10.7273261721603603  2.4058932968616000 24.4948862258150371
 10.5039539947673095  9.8619155098886999 24.2658623621836789
 10.6981024719785687 17.5900420073269501 32.0907057530572786
  2.7229712794783500  7.5232698618392995 21.6664573751539180
  2.7227360322151499 15.1989645919682985 21.5897962208947192
  2.7223737949941298  0.0786137444712000 13.6745005345804795
  8.1682096213962296  3.7466964380593497 18.5691875476262389
  8.1682055916977401 11.1303925631491492 18.5621030392089565
  8.1682882549721700 18.6813977076700510 18.8281794510835176
  2.7225758244724796  3.9465383376406495 17.7551439907161601
  2.7230691902605799 11.2342176686182498 18.1557008805311995
  2.7224780226010199 19.1825936643502502 25.5268997351424005
  8.1678746118677097  0.1342334070715500 14.5545626800627179
  8.1681681263928585  7.6003458269962501 14.9471086992191999
  8.1683778885358809 15.3552089067863999 22.3893198320601563
  2.7229543983089997  7.6215637566346492 29.0593574437017601
  2.7224334780960895 15.0873786670646997 29.4508610820748764
  2.7226680718946699 22.6996161974380470 29.3812881637363148
  8.1673829886519300  3.9871167604331994 25.8501728223244776
  8.1681535323496792 11.2746912895243501 26.2504875020774406
  8.1681186809032802 18.8712706417517992 26.2434133219507189
  2.7228006163017597  4.0924056674143499 25.4426000722790384
  2.7231512000703901 11.4751770699766489 25.4364074466969576
  2.7230745268883099 19.3732520417640011 32.9424453961343957
  8.1683212549354796  0.0234509632974000 22.4153117906457595
  8.1684060964253096  7.6987472635966494 22.3394706871257576
  8.1681920867622591 15.1421256655909477 30.3285933826444776
  5.4589590296332497 22.7859510325240500 25.9309860270451153
  5.4503258907168890  7.6293455821117497 17.9964502885440005
  5.5506003633881988 15.0287640451079980 18.3679022108735985
  5.5825479219276897  3.6793891960176000 14.3705914411046365
  5.4835270122190796 11.3965847882011495 22.0544801466393601
  5.3582836564175693 19.2604135174070983 21.8855294260646396
 10.7534025689106887  3.6801367371422997 14.3714347110835181
 10.8520945680939001 11.3961868150244996 22.0551198017471997
  0.0868209430747500 19.2582250074253487 21.8833911592934385
 10.8771817283203180 22.7854119535394979 25.9307945265599997
 10.8862209954980091  7.6292928386787002 17.9966226079180771
 10.7846218411311892 15.0280473280675491 18.3673423864627168
  5.3431080297257694  0.1931354921547000 25.6361407442380766
  5.4415291678239894  7.5931245431993997 26.0098640362713596
  5.4321459604346396 15.2687320525862997 25.8403005296755204
  5.4070176319371592  3.8254864506271500 21.9489910249881568
  5.3088717113547297 11.5424943583865982 29.6369538140390389
  5.5325380567375495 18.7967338961573986 29.8867498113945587
  0.0381937001097600  3.8267198706502503 21.9498978178367992
  0.1379418070296600 11.5426361491741485 29.6359334876505578
 10.8044513339358588 18.7938508168105507 29.8857440067379159
  0.1088898591321600  0.1936398655036500 25.6370907916569557
  0.0046004998355700  7.5933368868909001 26.0082623746713573
  0.0138545390517000 15.2677682862187503 25.8389865070847975
