Ba Sb  O 
 1.0000000000000000
     8.2042929999999998    0.0000000000000000    0.0000000000000000
     0.0000000000000000   14.7367889999999999    0.0000000000000000
     0.0000000000000000    0.0000000000000000   38.7649079999999984
 Ba  Sb  O  
  16  16  38
Cartesian
  5.1365825677458901  1.6787189190157199 14.8964075053466392
  5.1388814106444904  6.4065740923168200 17.7477711674608791
  7.1868652520724092 13.7747535825653102 17.7319132188962385
  7.3035709097827599  9.0377583579906311 14.8702985645104810
  0.8142464627522700  0.8356696622780400 14.6113865810312387
  0.9861335388371800  6.2753189653057495 17.7173527318023574
  3.3448842669661101  8.2284368955014706 14.5331861321228395
  3.1126414889973999 13.6236163166748891 17.6816316443785198
  5.0916534800329201  1.1131745991076800 21.0832790691650409
  4.8594042206727392  6.5083501887159603 24.2317226431753205
  7.3900515418664598 13.9011211061366389 24.1535214189687579
  7.2181579023471496  8.4614729820520491 21.0475564311448800
  1.0174310296447899  0.9620343858594600 21.0329940058055982
  0.9007203673157099  5.6990284314910200 23.8946117613839988
  3.0654091280676101  8.3302138761079512 21.0171387707845163
  3.0677093656960199 13.0580703757200602 23.8684989440570376
  5.7017385727680896 13.0439631423461400 14.0493124715907598
  5.0826393412708901 10.1541274508498400 17.9133884221546786
  6.5854596449877993  5.5849220637355792 14.0802294239661592
  7.2853166860294802  2.8006029604223999 17.9254997423611186
  1.0578106728033998 12.2130421155875712 14.3636094297259191
  1.2053696408983399 10.0072641485052003 17.7196239677620788
  2.9028303966917099  4.7786646744152996 14.4985151860567196
  2.9529076782621799  2.6283349075206597 17.8165377883583993
  5.2513904083994793 12.1084543872151205 20.9483717622379224
  5.3014588293335096  9.9581246203204810 24.2663943645395968
  6.9989199953415300  4.7295263251736994 21.0452875210796400
  7.1464853627850093  2.5237465896766498 24.4013043850102811
  0.9189797597735799 11.9361860395775992 20.8394090329370378
  1.6188313039389499  9.1518666415286400 24.6846820648755596
  3.1216504590548402  4.5826606649428205 20.8515222913888820
  2.5025561501334397  1.6928248260786298 24.7156009554963561
  4.9362992849869602  4.3709905645560001 14.3876898029264382
  6.6591867036029999 14.7089267425092594 13.6649568581744383
  5.1652727342381004 13.6230555818534391 15.8602023563911185
  5.1782419165266393  8.9436707391485708 16.3766757539548813
  5.0957651435128000  8.7481928330433902 19.2587687462897996
  7.1209434296456893  6.0388144280961296 15.9250079789891998
  7.2287675299688896 11.7507332762933405 14.4852083560875595
  7.2542857527014402  1.5905827524113101 16.3663309506059989
  5.7773928198089894  7.3278357619463099 13.7304284618919592
  7.2334565295471798  1.3748816981293199 19.2530648777266791
  1.0423760184254300  3.3082566047338502 17.9259122009822391
  1.2857746658438201  8.6236687344080689 16.3255475538464410
  1.1080952768579799  8.7283056836557797 19.1998581032512803
  1.0519720056470201 13.4154820140728415 15.9968630001070800
  3.1212305633391000 10.6862001019021804 17.8952247368621968
  2.5313401737375698  6.1997781848917501 13.2793685206837200
  3.0903979277728699  5.9357342732383804 16.0890978963077984
  2.8810705605824598  1.3775091202401299 16.2903366126118776
  2.9821118437108396  1.2648861576654300 19.2115744090451983
  5.0830606317164397  4.0505884559941494 20.8696852013831986
  5.2221882119811394 13.4719019581272299 19.5533339786038773
  5.3232260493064603 13.3592825323818900 22.4745729379844370
  5.1138920366387204  8.8010553162331799 22.6758112666394389
  5.6729468371285394  8.5370130256265995 25.4855414175616772
  6.9185143140526097  6.1131205603277099 22.4393635473462005
  7.1619181301755894 11.4285310689551398 20.8390004508067186
  7.1523246862848291  1.3213108174922998 22.7680469381383190
  7.0961962463692796  6.0084839058157806 19.5650526102922804
  0.9755285056195200  2.9860567552818900 24.2797085598412785
  1.0833480935815698  8.6979726561212996 22.8399027345543573
  2.4268996879334304  7.4089530906857997 25.0344822516515961
  0.9708382753972800 13.3619049439844400 19.5118431222733193
  0.9500091342859500 13.1462065423244692 22.3985770493939995
  3.2679900230811900 10.3657982880761104 24.3772178094244794
  3.1085253131563699  5.9885963143245000 19.5061419672537575
  3.0260486221854603  5.7931173766440898 22.3882337966414369
  3.0390208400624101  1.1137341549860100 22.9047091324505985
  1.5451109728440100  0.0278585732934900 25.0999569565617584
