Sn  O 
 1.0000000000000000
    11.6136090000000003    0.0000000000000000   -0.0031300000000000
    -0.0022770000000000   12.7962620000000005    0.8300560000000000
     0.0000000000000000    0.0000000000000000   37.1089150000000032
 Sn  O  
  48  46
Cartesian
  2.9158336867731300  6.7570080540705195 23.5639045717357618
  6.7693111967495705  6.5955103982097398 23.5024979498712234
 10.6264703225063712  6.5946481860761805 23.5084297876236903
  2.8913436176557505  0.1011053134639200 13.9615091637319626
  6.7686659154702902  0.1349885356137200 13.9950069573278597
 10.6438430739059111  0.1002843052940000 13.9671267367150023
  2.8998816171391799  4.4326859390445001 20.3380826590196513
  6.7498972390283392  4.4218819270752805 20.2780776489757457
 10.6561594239430502  4.4267616536263601 20.3213633348888330
  2.8938049229884499  2.1953062347008001 17.1520832545682005
  6.7716769127126399  2.2493106831072600 17.1517506411066805
 10.6415474353464603  2.2082453029847202 17.1566230881059134
  0.9684704444699700 11.5626653620028197 17.8073505334065629
  4.8258052475849098 11.5685351353448400 17.8209763981567200
  8.7320774134862109 11.5734526108688200 17.8642411514267607
  0.9768185677315800  1.0037625923273201 20.1633037439453133
  4.8426994566585906  0.9908212207162401 20.1556229955309725
  8.7125666100706809  0.9497630065004201 20.1605055565871609
  0.9525352186676701  9.2383202137052010 14.5815356571016022
  4.8554700599566800  9.4007420156076194 14.6338948592908107
  8.7126516085631405  9.3998315615663213 14.6398254171370112
  0.9792790672158900  3.0979235892267600 23.3538793272065845
  4.8403984787080203  3.0987660951168401 23.3451249820958182
  8.7155917809026402  3.0640571301801804 23.3172581803100947
  2.8950166881621002 10.8097646567647203 20.7547674723730111
  6.7389491174920195 10.7734178982546798 20.7741356491315941
 10.6996672919025002 10.7873833547136204 20.7860255792208122
  2.9110451143071603  0.2130582741504800 23.1468774891356404
  6.7591359033033598  0.1950375543011200 23.1407772248670618
 10.6709422634058608  0.1949523311962000 23.1395589652294547
  2.8865349757289702  8.5682216885793210 17.5917355179761614
  6.7832989407072892  8.5987227307199010 17.6114334965967032
 10.6613278778076292  8.5754462021792790 17.6133656545490425
  3.0395760912600300  6.4849538935952404 14.3433335629834708
  6.7897438069942808  6.5010152498071596 14.4602540737160314
 10.5193543328865911  6.4788882094819993 14.3383521957383024
  0.9818233630353901  7.4270969819999006 20.5536881343340525
  4.8206542075533001  7.4198875679890994 20.5289467855313532
  8.6986484192568589  7.3966150062897000 20.5308844054078534
  0.8287823598833700  9.5103858908162806 23.8020929432444426
  4.9626143929303206  9.5164674422944007 23.8039843037755006
  8.6922196920154811  9.4943442408478393 23.6820485360212736
  0.9733210938312300  5.1855578526931003 17.3906913168742001
  4.7823016675983299  5.2079643633803405 17.3562792341070704
  8.7430148527337099  5.2219040993526598 17.3681749189126329
  0.9596207724613200  2.9859747233440399 14.1685097714206201
  4.8133085820307207  3.0040871923919403 14.1726890768165710
  8.7251022783355499  3.0040298651381803 14.1714674348646419
  0.9814632299152201 11.7431130022594008 20.0714968479801534
  4.8221139841167604 11.7127392829257211 20.0574734882054635
  8.7225574586616919 11.6729225620491395 20.1054828459294725
  0.9801542657379599  1.1523599525780399 22.3943027168952256
  4.8425536279513794  1.1518135521906401 22.3886856660382207
  8.7105562719292795  1.1006535848641599 22.3937929402628306
  0.9596829835863000  9.5291082297111007 16.8782654292973007
  4.8306516362366398  9.5372893918581809 16.9341543155532896
  8.7326735449008606  9.5553991736910611 16.9547084590892823
  4.9109355565962298  7.3751915044493010 13.7714461989779000
  8.6555379893837401  7.3797382722631397 13.7504377977851213
  2.9086829017013702  6.4662234930553604 21.2671757666472807
  6.7492745186197505  6.4399006863830204 21.1875828649669629
 10.6513000261593316  6.4580180180104803 21.2081753483589921
  6.8263900924220993  8.6155970334566803 24.3918914554682438
 10.5710408464301100  8.6200954314001610 24.3708357440341352
  2.8868838385707001  4.2522342039840799 18.0739579744338918
  6.7594125477717002  4.3224155588483200 18.0368154071483104
 10.6598729812597206  4.2825815630180397 18.0848210421028703
  2.8904616825573601  2.0466727889912399 14.9210919623019205
  6.7736584506748505  2.0984112753227397 14.9184623213656220
 10.6416732873938393  2.0472600094544204 14.9235623638696602
  0.9868006806477300  5.3649312467547805 19.6390295551589418
  4.7995942771026003  5.3512021372549796 19.6133780197242444
  8.7134691318491697  5.3367879158877001 19.6372924274552041
  0.9457145678151900  7.5961045081032399 22.7815422675365689
  4.8715758062863204  7.6183636058522399 22.7470731650265741
  8.6898743288328593  7.5200174224007608 22.7648590218400777
  0.9577503408786300  3.1520868392446402 16.4917379022309198
  4.8220938145254602  3.1731159602901999 16.4837889368854000
  8.7194234455186503  3.1907485695130999 16.4969528389881006
  0.9594393317535600  0.9753309616773801 13.3456574886943429
  4.8342812989946395  0.9857864034697201 13.3630416952843092
  8.7038232103301407  0.9809674591631400 13.3647358297100727
  2.9129111280505797  0.0469723905869800 20.8236417839007899
  6.7648282122102295  0.0082946649910200 20.8152780023650088
 10.6621571421061194  0.0259513311864800 20.8284620196182928
  2.9112294565272601  2.2237126567145999 23.9697267491344022
  6.7804323914945703  2.2181012399023601 23.9475308025920839
 10.6499695433907604  2.2132702671095004 23.9491996661646063
  2.8815451124588098 10.6304040589650413 18.5064155895077214
  6.7684711414681802 10.6585630012717605 18.5050200229007835
 10.6823660910599703 10.6441302253245809 18.5289324794573425
  2.9226440052251097  8.3992029017654204 15.3639155366418603
  6.7921164704007895  8.4752957457858002 15.3774921571308525
 10.6103871174850202  8.3769653017365808 15.3952129885565405
