Si  O 
 1.0000000000000000
     9.8232999999999997    0.0000000000000000   -0.0738430000000000
     7.1466550000000000    4.3736780000000000    0.0000000000000000
     0.0000000000000000    0.0000000000000000   35.2354109999999991
 Si  O  
  12  24
Cartesian
  6.7687773663040502  4.0012886656793798 14.6513909731022007
  2.8135955290085506  2.3441838592579800 11.8955227406646795
  4.0772976324533508  2.3543288677996603 14.6513849438229702
  0.2055024379716499  0.7473890983555400 11.8953164989289597
  8.1066753870401485  1.7960391929797399 19.0841998427991903
 11.6867773499777989  3.9868260059528797 16.1129766624089932
  5.4316309239062512  0.1588990019985000 19.0847490116015308
  8.9991075749628511  2.3418232102942600 16.1134424139907217
  9.0375350324594503  0.1530629410224200 23.2615116951791414
  3.1977645446675003  1.7816811516310000 20.5879049219155803
 13.6175937382888002  2.9566306456496800 23.2617131024145074
  0.5311179084451499  0.1497570527693400 20.5879106458546488
  9.0916205996667490  1.1542969427659000 15.0106212808631714
  3.9140322987071503  2.0604848858937399 13.0571001678968805
  1.8093697273373999  1.0559129368374400 11.9538175851575890
 12.4746409206846494  3.6226983744271397 11.0068935183459793
  5.5290980522126505  3.0044046366011403 14.9543742336782586
  8.9637225892885493  1.4724722202271798 11.0064255530702404
 12.7023833382118490  3.3640077419726597 15.0105831100703480
  7.1047465294348502  4.0125515863178602 13.0571662313987797
  7.7319898414588497  3.3191889140354598 19.5006696083311333
 12.5092799806340995  4.2700446619991599 17.4843859848181609
 10.4730535105310487  2.9517520265245798 16.4311995765544694
  3.9216972381875999  0.9881840837477599 15.5129614394561486
  6.8834117551608998  0.7909349673108400 19.4563788371558815
  8.0563020015439495  3.5184222807074201 15.5132315654638404
  4.2455626009688494  1.1852093116078599 19.5011934716340996
  8.3726423382681006  1.7383787653299601 17.4843902016215971
  9.2301967269455005  1.5493225099962000 23.8443672302131908
  4.0186993195449006  2.1045796514380402 21.9695017501364518
  2.0170209004039501  0.7164604594314199 20.8794470482259804
 12.3851638912599995  3.1471998436772002 19.9058453210698509
  5.2765697839983003  3.4166720297694799 23.8289297932452406
  9.4278885415578486  1.3377658244546600 19.9060047644439173
 12.2868402625719995  3.4213087407643998 23.8447358436903585
  7.0167254752049004  3.9388538436512399 21.9692970477812786
