Ca Bi  O 
 1.0000000000000000
    14.2216760000000004    0.0000000000000000    0.0000000000000000
     2.4522409999999999   12.3008260000000007    0.0000000000000000
     0.0000000000000000    0.0000000000000000   35.5220879999999966
 Ca  Bi  O  
  16  32  64
Cartesian
  4.3743736941559597  7.1548467876907997 23.1760651959244761
  2.8146232760985601 10.7809374155391211 21.4883276733585582
  6.4148308128707496 11.2963930733670210 12.3460128578908801
 11.4852170542657213  7.1548472797238407 12.3460199623084783
 15.0854121299255510  7.6703039216178208 21.4883251868123999
  7.9745718298688892  7.6703002313700201 14.0337553535491182
  9.9254634092838696 10.7809338482995809 14.0337557087699984
 13.5256649241055893 11.2963999618295805 23.1760641302618389
 10.3194682611473798  1.6288977664233200 17.4530000050727985
  8.7707530236308688  4.5571685626963800 15.9291915903136783
 12.2391721041636803  4.5215203999235998 18.0690816009513604
  3.2086265536762202  1.6288962903242001 18.0690872844854376
  6.6770373609162696  1.5932373028245401 15.9291933664180778
 13.7878779650111589  1.5932403780310402 19.5929003171160012
  1.6599213744724299  4.5571754511589404 19.5928988962324766
  5.1283267823932999  4.5215172017088401 17.4529992946310379
  7.4258989032622695  8.1306313365862994 22.2140588504755172
 13.3606414356239185  4.7633846530990400 21.8831514188279961
  9.1979873561670615  1.3870325291818002 13.6389294767543969
  4.1508283306240195  7.4151777789070001 15.2826320429311178
  5.7229290767980103  0.3667684394868200 23.0313300931475986
  2.6140292662982199  5.7836459136040403 12.4907536442018401
 10.4741401170610597 10.3206117226862819 22.2140595609172777
  3.3632991648669099 10.3206133217936618 13.3080291495244794
 14.5367483295818012  8.1306280153632802 13.3080355435003188
  3.3905778150024197 11.1406157819278011 17.6031785126148002
  6.6383725474164601 11.0360617131260401 20.2394506287556766
 14.1054049512448696 10.9224322179097406 19.6930740261595183
 13.7492098363326605 11.0360617131260401 15.2826387921278375
 10.9054674346734206  7.5288054289994006 15.8290125529569590
  7.3986176440480804  7.3106214959565596 17.9189062903972776
 11.2616623240984204  7.4151812231382808 20.2394456556633564
 13.7178484937215703  1.4515423660149001 15.8662883664415180
  6.9945664265049494 10.9224317258767005 15.8290090007481581
  3.7946305234948601  7.5288123174619610 19.6930733157177578
  9.8745101549531213  1.2605546982002400 21.2131643439676800
 14.5094602440953100  7.3106253092126199 17.6031710529763181
 10.5014173941398816 11.1406179960764806 17.9189073560599184
  1.7299469077537699  4.6988694039025001 15.8662908529876798
  8.8407815289754303  4.6988745702494201 19.6557921739199983
  6.6070155889364299  1.4515386757671003 19.6557946604661566
  9.7248693164113504  5.7836583374383004 23.0313290274849578
 12.6841228298395201  4.8898656822953601 14.3089158411729578
  6.2498059218261908  4.7633771495951809 13.6389284110917579
  5.5732819903559303  4.8898628531053800 21.2131675409555989
  2.0871501456696997  1.3870300690166002 21.8831539053741579
 12.8337675181352999  0.3667670863959600 12.4907554203062379
  2.7636734103154601  1.2605510079524400 14.3089158411729578
 11.6458898140332110  4.9820122769357003 12.5886795155167182
  7.6448226698096198  0.3370970020509200 22.1842707379204782
 12.2712307392827800 11.3867425173287593 21.0076807871767173
  9.0949215168527502  2.2600129247823002 15.5577644681054377
  7.2140686675279202  0.7807929622178401 13.7727127645799996
  2.5752986555541302  7.8387762805303414 12.7278110089115994
  1.1228977673027098  5.3696263112034197 21.7493617370265575
 10.2037330975238021  8.3025497719027204 13.9042343610626382
 13.4637199762908999  3.8904001982259602 19.9643196244648777
  9.6861328698623996  7.8387879663150413 22.7942727284378392
 12.9335471911600113  6.8953600021629802 21.5456940693741608
 10.9127484279279408  1.1684109327498799 22.9333999591821573
  5.8227075726809492  6.8953518836178196 13.9763846948829578
  4.9664895537612495 11.5558866243491405 21.5457022394543962
 12.3471214410666814  6.8865608523004012 18.4744799167975167
 13.3634737887082000  8.0087514313552806 11.6653499747030391
 15.7732055036983816 11.6730880334193206 16.3225667450344787
 12.6637508664327711 11.5646792547739405 17.0476052414354378
 12.0773297851022896 11.5558871163821806 13.9763914440796793
 16.4145226366197612 11.2538495595716803 19.3493651444385577
  6.2526246468221904  8.0087547525783016 23.8567437088310399
 14.9138153610869697  5.8133158749408205 13.3378193934047999
 10.6667961919359495  5.4045414677548598 21.0888920952040770
 14.8071405095972892 10.1486932873698610 21.6178518628329570
  4.5365750543408794 10.4424895367768809 11.6653439359480782
 11.6474143882542407 10.4424905208429610 23.8567383805178395
 12.7396476639987295  7.0645017720264205 14.5144086337067986
 11.8918397695732505  0.7458774366416201 14.4331916421453599
  8.5963520445035808  7.1973946067752399 16.1727185929108792
  8.2139073323882208 10.6124581681640411 22.7942734388795998
 15.3247476029386807 10.6124574301144801 12.7278106536907192
  9.2376669705402410  6.7781521966632807 19.1995088222347157
  5.5529113608625398 11.5646774096500398 18.4744863107733579
  2.1268342079718598  6.7781485064154801 16.3225667450344787
  3.5559566274194103  5.4045343332757803 14.4331895108200783
  3.0928973288648400  8.3025502639357605 21.6178490210659149
  1.4855170409570300  7.1973996501139004 19.3493608817879981
  8.1536313638706996  0.9431336053858800 18.1001239984336770
  9.3036848915470802 11.2538451312743213 16.1727185929108792
  1.9840790247966498  2.2600146468979401 19.9643199796857544
  7.6963003321526795 10.1486902121633591 13.9042329401791172
  1.0427943250302099  0.9431320062785000 17.4219568971487178
  4.4347595935380797  0.7643192040056001 15.7712827659811179
  5.2362892326783301  6.8865585151434603 17.0475952952507974
 11.5455992364073712  0.7643203110799400 19.7508020370309580
 11.0130335128643893  5.3860931809531003 15.7712802794349578
  3.8019124776445303  1.1684019531469001 12.5886834229463993
  5.4238993559306401  2.3207909370235202 18.1785830550828003
  7.8029749681227312  5.8133266996677007 22.1842746453501611
  4.5350484743321093  4.9820090787209406 22.9334031561700762
  3.9021943212338801  5.3860957641265603 19.7508087862276795
  8.2337316674069001  5.3696192997326007 13.7727138302426386
 12.5347384692744903  2.3207979484943402 17.3435021031501577
  8.6623684845286899 11.6730893865101812 19.1995113087808775
  5.1603923027971002 11.3867410412296408 14.5144022397309573
  6.3528762778511894  3.8904022893663806 15.5577669546515995
 10.0238989683648327  3.8296219399682205 18.1785798580948779
  2.9130599139672899  3.8296202178525802 17.3435077866842384
  4.7810031525314303  0.7458786667242200 21.0888871221117604
  5.6288061575584596  7.0644984508033994 21.0076822080602348
 14.3249046569546596  0.7807971444986801 21.7493688414441593
 14.4050084276556198  5.2072838229114806 17.4219615150201577
  7.2941584470899707  5.2072822238041008 18.1001314580721591
  0.5339847482945500  0.3370981091252600 13.3378126442080784
