Ce Sb  O 
 1.0000000000000000
     8.8165940000000003    0.0000000000000000   -0.1083750000000000
    -1.7230790000000000    8.8647960000000001   -0.0145820000000000
     0.0000000000000000    0.0000000000000000   30.9841079999999991
 Ce  Sb  O  
  16   8  16
Cartesian
  0.8828545725023904  6.7265291059472396 18.5097016401340966
  6.1662013196493897  2.2855652308683601 18.4665655402549369
  3.5478822294887702  8.1777435491578796 15.9118606772296598
  0.0017254517371400  3.7445247576962397 15.9744976280242010
  2.7328916240115806  1.3838049387633600 17.6610627015064487
  6.2794735756882893  5.8210487022008399 17.5964030233249105
  3.6065268003858204  4.3603091243361600 19.7702971710107285
 -1.6762390808496601  8.8039014114290399 19.8105671582022005
  2.5899861193867402  5.2631896607116806 13.2324300780991706
  7.8548005421193796  0.8288328953875200 13.1847904991850484
  5.2700738293114400  6.7111578156271197 11.0589570008065081
  1.7156650480419899  2.2859708839333202 11.1190665161791191
  2.7134883961451095  8.7864218953241995 12.3655911222173014
 -0.8419358150373401  4.3620379368520803 12.4319792044763204
  5.3178489302879708  2.9037877710001201 14.9209709749270196
  0.0490443796121200  7.3367184565917603 14.9623170203431091
  4.0286342799904995  7.7282633760136807 19.3679237347398825
  0.4918748131517202  3.3054365189589601 19.4314068243776497
  3.1140262007270101  4.8089664671156402 16.6845641685194188
  8.3846778794190389  0.3794655710964000 16.6281589366837288
  2.2042609192383700  1.8404017701363602 14.2113094968967690
  5.7508943989980708  6.2702268517453206 14.1504356270287399
 -0.4332106206846000  7.7891464403498407 11.5090519035651493
  4.8271829677033802  3.3412518904622401 11.4619646629869898
  4.0225771024894597  2.3279975520499199 19.2736183287794489
 -1.2556739878083201  6.7677806363016000 19.3147938214949768
  1.3784140692578402  8.1041275350871196 16.7388403583537695
  6.6473383590785993  3.6730869126506400 16.6956676884154298
  4.8831232986276598  1.4677306219341599 16.7292798714350006
 -0.3862463241036600  5.9012170415870404 16.7728918410673487
  0.3950752213162001  8.8274248567987197 19.2902567829710598
  5.6719093462656209  4.3929136667282398 19.2455217037098016
  5.7041899435462309  0.7487558634001200 14.1178043038685885
  0.4389085038558400  5.1805639112263195 14.1661589069450091
  3.2016617816448805  6.6850878689584805 11.5842772015440492
 -0.3491969433883000  2.2549601432140802 11.6501610673356488
  4.8506965966260003  8.7463192425314400 11.5567428685976683
  1.3029975849748303  4.3175521743250798 11.6240969087146304
  2.2192568070133798  7.4091004024113607 14.1364228801238294
  7.4873326265747009  2.9761726422024002 14.0922600299373286
