Sr Ru  O 
 1.0000000000000000
    11.0407430000000009    0.0000000000000000    0.0000000000000000
    -5.5203709999999999   12.9019480000000009    0.0000000000000000
     0.0000000000000000    0.0000000000000000   33.1222279999999998
 Sr  Ru  O  
  24  12  48
Cartesian
 -0.0103122009248499  1.9056695854309600 12.7529709598259586
 -2.7090041838930499  8.3863730281294409 12.8464442057979191
  5.5644264616327002  2.0257779479863203 12.9423380241921198
  2.8133572995596103  8.3846787443180801 12.8533664202276405
  2.7303881279890305  1.9007300746391602 15.5794751658759196
 -0.0235045376298295  8.2819598853160805 15.5670046470339205
  8.3487737676452589  1.8717637821648803 15.5755508443024784
  5.4937144469456518  8.3626740849456400 15.5819500587520796
  0.0264091366615302  4.5476519240076403 15.5794576110950800
 -2.7417573295650599 11.0105500333687214 15.5778064680292800
  5.5501708632174109  4.5684649594628004 15.5674779636720402
  2.7920339172055302 11.0021035150715605 15.5813555147594798
  2.8104782214029402  4.5343322109314004 12.8174904101917200
 -0.0134533294008401 10.9198352758054007 12.9823708738420400
  8.3671647672813805  4.5243715200169605 12.8538572916465998
  5.5490703504858798 11.0025521158035211 12.7664136160597614
 -0.0176408803712499  1.9094332126820399 18.3918116701211609
 -2.8135472685869893  8.3723846070883603 18.3195455930707602
  5.5166410749011909  1.9701208796065199 18.1496226014297193
  2.7110329073196007  8.3692547235230403 18.3183813467565599
  2.7105624778705204  4.5244485446465204 18.2877492478576009
 -0.0366258631749394 10.8798175617327608 18.1823818098108418
  8.2269774170118897  4.5193613065501204 18.2850411744963175
  5.4952222180729322 11.0067197030464801 18.4307968636994381
  2.7241760366587804  0.0303342860207200 12.7517202644966794
 -0.0273022928307998  6.4542374187271205 12.7600604415070809
  2.7971371866778219 12.8715066278108807 12.7467525927412400
  5.4860399531323321  6.4698545816837196 12.7760564902973996
  2.7547794584538305  6.4482258850759999 15.5711227336411611
  5.5375393033897806  0.0015980352792800 15.5576698095166783
  8.2713791100760901  6.4650848605276003 15.5692715323182398
 -5.5040297625994903 12.8838170214950800 15.5768389677493992
  2.6671346449324003  0.0236834608462000 18.4273461899864017
  0.0277904064252699  6.4265481610658810 18.3822194728923591
  2.8271565814793913 12.8975834000110812 18.4206564935972388
  5.5486805464295212  6.4549795387760804 18.3736534022870011
  0.0110094139445800  2.1122660273848402 15.5776299265540406
 -2.7472321975613796  8.5652461512793607 15.5802127978934806
  5.5331456663327314  2.1129635066937200 15.5777995123614001
  2.7721072137453007  8.5642738604780799 15.5793741430805195
  2.7887023604722603  2.1318772463837998 12.8521134063424007
  0.0282245567797004  8.5822929790938396 12.8526175266525602
  8.2375328802759604  2.0864462619888000 12.7857589845454402
  5.5490540267963295  8.5822153093668803 12.8521528217937195
  0.0433490520048603  4.3657602611036399 12.7856722043080797
 -2.7166309245744595 10.8164693841112012 12.7858563638957587
  5.4937410640870210  4.3202252870077604 12.8526251447650015
  2.7318530814907298 10.7705363849195219 12.8523071713761983
  2.7469837841560603  4.3404592830366804 15.5668658648985989
 -0.0131207321200000 10.7881828952770409 15.5791555363757190
  8.2685121331042613  4.3377927084240406 15.5776925275649596
  5.5092106654592206 10.7903910636772409 15.5768320120815194
  4.0991606371857507 12.8839755864360015 11.5260113503530395
  1.4138418327744002  0.0257524172274800 14.1970649910642805
 -1.3427919709241800  6.4686175429094810 14.1793578479754814
  1.3446747259623608 12.8839535241049212 14.1722531300694801
  4.1755109357890605  6.4769191723306001 14.1959527466480395
 -1.3428836642881201  6.4687897839152813 11.5258348088778000
  1.4201771764217801  0.0180844024726400 11.5259762407913584
  4.1781150603170314  6.4686690216820004 11.5263541654128403
  4.1780930048578400  0.0179075167655600 14.1741112870602812
  1.4186253739529504  6.4685009092995607 14.1745127284636414
  4.1027428614831001 12.8846796457383608 14.1782568651167598
  6.9389469698014103  6.4686768918702811 14.1743789146625190
  2.7882909823709499  2.1314352256453204 18.2831489016106801
 -0.0437708604465996  8.5356203112233207 18.3490432556607210
  8.2374220311938000  2.0858672225625599 18.3491866749079620
  5.4769116573137211  8.5363946861422804 18.3492933284821191
 -0.0275647571959401  4.3613416019526001 18.3360974328469197
 -2.7168198316804695 10.8166427862923200 18.3492982968163183
  5.4918054562207210  4.3200380797422806 18.2821880257763993
  2.7321083986619819 10.7702622185245200 18.2831280346070422
  4.1780213504222399  0.0175583900526800 16.9601590101641975
  1.3424745527429507  6.4336776485111997 16.9560846448979206
  4.1051615570249700 12.8839793280009207 16.9555076556861586
  6.8631453672722120  6.4333300700320804 16.9556447817100810
  1.3792733209080201  0.0067324945053600 19.6846722580897193
  1.4168888015051402  0.0175291026307200 16.9567086676734391
 -1.4189540537055900  6.4334446393303200 16.9602842121860391
  1.3454194790117802 12.8769956325680006 16.9779045750374777
  4.1015208428577203  6.4335766262583602 16.9603547625316793
  1.3432875930492005  6.4334642502912809 19.6096136459966388
  6.8634359596291201  6.4333597445124804 19.6090797156812791
  9.6460577409062012  0.0082096385318800 19.6715850033623596
