 K Sb  O 
 1.0000000000000000
     8.5300680000000000    0.0000000000000000    0.0000000000000000
     0.0000000000000000    8.5300680000000000    0.0000000000000000
     0.0000000000000000    0.0000000000000000   42.6503399999999999
 K   Sb  O  
  24   8  24
Cartesian
  0.2263106370032400  0.2156199880795200 19.2979421883444004
  8.2463995650518402  4.5759825307196405 14.8457691590094001
  4.1442369774302401  8.1954939958428010 15.4821139378229997
  4.4112188933568000  4.1478577353941999 18.9504621913031990
  6.1252866688630805  6.7187190639877201 21.0681142683030025
  2.0034993802972800  2.8735182920144400 12.8925358487232007
  2.4333066462350397  6.1297711815127203 21.0055466460263993
  6.0392324426559600  1.6279532417184002 13.2041302761917994
  1.8386685259986000  2.4624200242210801 16.7189865929250026
  6.7695367734963598  6.7787994037361994 17.4101012323530000
  6.7116542910687595  1.9069982945098800 16.8087625731011983
  1.8502274505440399  6.0813105003938395 17.2864600292100015
  0.2836683496474800  0.3109510897400400 27.8045661494532013
  8.3037539509695595  4.4806562911978798 23.3523982381589974
  4.1188464623221206  8.4128889204717598 23.6998778086967974
  4.3858305960663602  3.9304619577584399 27.1682222236463993
  6.5265802205951999  7.1385528038185200 29.7578118283380029
  2.4047777485083599  2.4536841256802400 21.5822257316970010
  2.4908341925331601  5.8929880094245206 29.4462097238082023
  6.0967559798221194  1.8647375227154399 21.6447929274702027
  1.7605297763920800  2.5137647213307601 25.2402379146402005
  6.6914012653156796  6.7274512092986400 25.9313563925988007
  6.6798401229525606  1.8162761591911198 25.3638778382729981
  1.8184119176169600  6.1720324651112399 25.8415778534021996
  0.0788115160696800  8.4976147591892399 14.7468557699915994
  8.4171264876527996  4.2182692670008803 19.3310819290277998
  4.1917902299152798  0.1812670158244800 19.1172941142540012
  4.3091092878593997  4.1627189904651596 14.8370266923162006
  0.1129388680261200  8.4833041200076806 23.3192580709721966
  8.4512584458459603  4.2325812709933199 27.9034850830151981
  4.2209659626983997 -0.1023075883756800 27.8133030716021992
  4.3382742727568395  4.4463003334190399 23.5330450327391993
  6.6926313011212804  8.1286050411173996 14.9854780247406012
  6.1339602126068398  0.5111796790224000 19.1710945326402005
  2.3773583567264400  4.5600104901937204 15.0125140752665995
  0.6139829496495599  8.5119034760960410 16.6502896902869999
  7.9883521276491596  4.2788613255286805 17.4118251590958018
  4.2077214967161600  6.8151994217098801 18.5570264529120017
  4.4493128975345995  3.6201031959403198 12.9688522346021990
  3.8277642040724400  0.0175206743713200 21.0478259280683986
 -0.0498060434438400  1.9112690436554400 14.3595804467100017
  1.8102932547966000  3.8091494631794403 19.2383588103575995
  4.3452462385359594  2.3281564979990401 15.6076701412320009
  8.5028700487833593  6.1546840981135196 19.6884491278878002
  6.7197730391897998  8.0741822689699205 23.4119816161458019
  6.1527128846994001  0.2949702632440800 27.6378306162707972
  2.3961037782612000  4.7762109494006397 23.4792441878496021
  0.5417157870501600  0.0138270696266400 25.2385118553803984
  7.9160805294143994  4.2468675141803995 26.0000532952367998
  4.1848222732681197  6.5931954454384805 27.0426630347136019
  4.7023007251030799  4.2825561244828805 21.6025132189247984
  4.0807681534694398 -0.6449467552868400 29.6815014135065987
  0.0271930037772000  1.8896518894278000 22.9618925781258021
  1.8374406227100000  3.8635702734112800 27.6648598427423984
  4.3223453943749996  2.5501654217098801 24.0933122675778009
  0.0498089436669600  6.1763052614731198 28.2907608328001992
