Pt  O 
 1.0000000000000000
     8.2204910000000009    0.0000000000000000   -4.7461019999999996
     0.0000000000000000    9.4358369999999994    0.0000000000000000
     0.0000000000000000    0.0000000000000000   37.9688200000000009
 Pt  O  
  18  38
Cartesian
  1.7888677051077100  0.1161555309034800 15.2388345684339797
  4.5394392258229308  0.1145292643965300 13.6499228653715416
  7.2159264485725005  0.0020762615734800 11.9715971970593991
  0.8860884511931101  4.4991369187171193 16.8474391971449826
  3.6397657556130403  4.4969062868503196 15.2582804596363228
  6.3030306474087503  4.7336931435798597 13.5574980370088980
  1.8383584313290202  0.0737465389404600 18.5213643100891616
  4.5789127905312803  0.0686459028917400 16.8943330502020395
  7.3583513052371909  0.0778866067825800 15.3377226105950228
  0.8548586414742900  4.7955683616322498 19.9900549237940162
  3.6431405959881804  4.7743882101101995 18.4405859451566450
  6.3801774892964502  4.7888419308684300 16.8021764263830988
  1.9167218236798103  0.0202721409275400 21.7706005241511775
  4.5803040264281201  9.2158727309075399 20.0701854498765648
  7.3353569478119907  9.2192050911024594 18.4809789666604232
  1.0210527190458401  4.6667094577340400 23.3904011616311216
  3.6730640874821905  4.8519710772997504 21.6856483388118235
  6.4390266690868909  4.8539403364816494 20.0900820314482189
  5.6456683157505401  6.0105302250119399 12.4283568803599209
  8.1207595921634521  0.5607389561972399 10.3464263451581004
  2.6663506175023803  0.6999662408661600 13.5827447555226399
  5.3577249850431308  0.5598630274485300 11.9447441581631413
  8.2025737000213113  5.5867134728628889 13.5851895723483818
  2.6850731967794306  5.5147051094561998 16.7813579925495411
  5.3788014197131204  5.5832975111521499 15.2196453926197623
  0.1522894458646900  1.1111439724288199 18.7180789078984198
  2.7842092766577604  1.0298522551480498 16.9660754061198809
  5.5383669865717309  1.0335475176339899 15.3826657175207391
  0.8763774207649900  8.7261465629551189 16.8995424793316182
  3.6489185324973503  8.6922215207555400 15.2819389743181020
  6.4352945661728906  8.7361852555810504 13.6957929222822195
  1.8269994390701301  3.7383137753276094 15.2966061237463400
  4.6027665180856205  3.7198896430765198 13.7356933419997596
  7.3061355684542910  3.7270500279839700 12.1673127534100232
  8.0269448005192405  5.8563397787451592 16.5470205032055198
  2.6822554590793604  5.7430496284634698 19.9503175798462848
  5.4341964313902711  5.7397042468134893 18.3611505840136608
  0.0210530062706400  0.8741008383663600 21.7426727755259179
  2.8386050054489500  0.8696903394358200 20.1121313503740993
  5.5414382442142411  0.8098749646005300 18.5597947714089209
  0.9363841278931401  8.5412008552121694 20.0762965945853225
  3.6289680584796304  8.5033463530523097 18.3854129298813405
  6.3437759220748005  8.5083337590570292 16.8216885533060001
  1.8842013968739901  3.7712064426010197 18.5332404377022222
  4.6029973494729006  3.7651873221787198 16.9641923581951986
  7.2824276724102912  3.8165945170216800 15.2502529810446195
  0.1067254837842600  5.2442151414133198 25.0076720778826775
  2.8785454118411904  5.2440355774352101 23.4040318436854200
  5.5396961577615205  5.4526530638184294 21.7262610887447600
  2.5802870912318903  1.2846320263777797 22.9112868128138238
  0.9120014939478601  8.4459277751733897 23.1620020913394811
  3.6138960348458604  8.4340157858278495 21.5884031155002774
  6.3874002593037806  8.4332677126704887 20.0246760372166399
  1.7749249303226102  4.0388383899749698 21.6466919292739775
  4.5804513376268403  3.9891561604939798 20.0632375355137178
  7.3558190651895501  4.0268997915690896 18.4304187379724986
