Rb Sn  O 
 1.0000000000000000
     8.8752990000000000    0.0000000000000000   -0.1880120000000000
    -1.1026790000000000    8.8065339999999992    0.1880120000000000
     0.0000000000000000    0.0000000000000000   37.2828829999999982
 Rb  Sn  O  
  16   8  24
Cartesian
  3.4290789798498404  6.6724592091236197 14.6360770014320405
  8.4180719748117294  2.2691936181690600 14.4480600963735295
  1.7950490447990504  8.1366549518412388 20.5817348104250328
  6.7840417178293499  3.7333890966906593 20.3937242453367489
  5.3210947915528894  1.0940535080186800 12.6430062446207288
  0.3321082330681200  5.4973215648027596 12.8310193311451783
  3.7980623070056301  2.4963196781454795 18.7293527221678922
  7.6843718500592093  6.8995839481199388 18.7293493253457797
  5.9074236801798206  0.5904135528057799 16.7011447000619100
  0.9184409574338500  4.9936779108455793 16.8891598731497368
  4.2515824746239899  2.0298681308384596 22.6468008566143304
 -0.7374093716504500  6.4331415596082797 22.8348160197364898
  3.9482492015413801  6.2804144198439591 18.5535315486083192
  0.0619366454488900  1.8771416075315199 18.5535288842830290
  2.3676320503613399  7.6174201220251190 24.6398713910064089
  7.3566211175994205  3.2141540026785198 24.4518601517050271
  3.3109508297331098  2.8787002650788800 15.0335235937471179
  7.1972536722052798  7.2819648873146994 15.0335281748599208
  5.6325855289988196  8.6610584245272992 21.3193576975153505
  1.7462628112435898  4.2578008475186797 21.3193782758606112
  4.3881867583968397  5.8445822225361992 22.2493509345963894
  0.5018778559744200  1.4413142538174597 22.2493479106031096
  2.0646943789962600  0.0601024809818400 15.9635180081634402
  5.9510085527948595  4.4633581205529804 15.9635087594523206
  3.4781591301980801  0.8153993608241800 14.6202374439260687
  7.3644716416447391  5.2186718208752589 14.6202341373497191
  1.8882552529608203  2.2054078924070599 20.8560509481838814
  5.7745650891749793  6.6086783269553200 20.8560513886970256
  5.3674339770865895  2.9878256385518198 14.5928441151048585
  0.3784468497714902  7.3910897323955993 14.7808493101799172
  8.7793344036418794  0.0052324021761000 20.6396481735567221
  3.7903514477173106  4.4084964960198789 20.8276566357256137
  6.0258878951810200  8.2866340126708593 13.8158330973481505
  2.1395768406332603  3.8833662200827992 13.8158446625623608
  5.6556357391242997  0.7347413727022599 19.7420190721047817
  0.6666498729192298  5.1380152417987794 19.9300344896082109
  1.6443051840904599  0.4038329514960399 23.4670417874681796
  5.5306196217399606  4.8070999514960393 23.4670405749756874
  1.9695387355383700  7.9047325892523999 17.5408624121383383
  6.9585336290094295  3.5014688476699796 17.3528477384124500
  0.0105664639999400 -0.0540073026697600 16.4268293968914314
  3.8968800030927500  4.3492597853955797 16.4268367801433506
  7.3090952164939491  1.3508825981316599 22.4746424720038078
  2.3201142644984203  5.7541413199896994 22.6626541467430478
  1.9602715802922797  2.1070582820018600 16.4552200963137878
  5.8465810426729199  6.5103331198171199 16.4552109335231194
  4.2409666208698305  7.8986867275307189 22.6900344523118207
  0.3546625673201600  3.4954197275307197 22.6900294795689881
