Sr Si  O 
 1.0000000000000000
    14.4003940000000004    0.0000000000000000    0.0000000000000000
     0.0000000000000000   17.5518789999999996    0.0464920000000000
     0.0000000000000000    0.0000000000000000   37.2681749999999994
 Sr  Si  O  
  72  24  16
Cartesian
  5.6540072556881009 15.9578055894610689 24.4840513155338613
 12.8515974963662210 15.9584167458878508 24.4855764573792989
  5.6216669948468398  4.4076182009465503 20.3309291675786490
 12.8229643289523807  4.4072157363610795 20.3299498119233348
  5.6571714542617197 10.2546754766977593 16.1064290758214810
 12.8571672807575403 10.2550670591182502 16.1048186371710003
  2.0559001861743602 13.1487475858822211 21.2245154752358118
  9.2569498335031000 13.1471498383368512 21.2240442728363021
  2.0207168555456803  1.4427474284773700 16.9552185727405096
  9.2217594466813608  1.4422737032631601 16.9548673697581798
  2.0543157108225398  7.4447098654558195 12.8474006600561115
  9.2533058138014006  7.4459346355724403 12.8467532019323691
  5.1400835465491204  7.7511421532779599 18.8632115670013292
 12.3399709380781211  7.7511628644951802 18.8631273957863890
  5.0615321333539800 13.6354394262222591 14.7069218070972294
 12.2616253065132401 13.6354680357850295 14.7065149144081886
  5.1380814597713007  1.9912124048827500 22.8637419491092508
 12.3378866250505599  1.9926204166161301 22.8645063221492393
  1.4606584601449599  9.7681266841715697 22.6242325700133584
  8.6618417431300205  9.7671120100465796 22.6227685971690882
  1.5400610806294401 15.6515712868340504 18.4679714841131499
  8.7405420563991196 15.6511063375593391 18.4675532216618201
  1.5376177657794601  3.8590257978996299 14.4190412555207406
  8.7371042503395007  3.8591400606319199 14.4184393044756600
  5.6862580900826201 13.5897011602549487 20.9054980616945976
 12.8867975314519398 13.5906092944744099 20.9066527991616802
  5.6351990450886396  1.8825778581128900 16.7167794321612213
 12.8361451535845212  1.8831437306918499 16.7163702357748001
  5.6749513327256400  7.9725392732396898 12.6093749920596192
 12.8731646784521399  7.9755708337805702 12.6088366707123605
  2.0740223620036602 15.4281432389532309 24.7227764968782893
  9.2740635497405801 15.4322798657959499 24.7229462165383502
  2.0350903208089002  3.9674932507814100 20.5674418814199278
  9.2349013902496999  3.9673344062764602 20.5679080582183325
  2.0854578588829997  9.8123423246356296 16.4232730819429875
  9.2859719555588800  9.8124293819554698 16.4233597747093114
  5.1188952388293396 10.3176607455268403 22.3703199507138173
 12.3188661526435403 10.3168665230020888 22.3697763403680732
  5.1809227759252403 16.0864208442469483 18.1936511403688499
 12.3810892470899603 16.0867899602623190 18.1932138443576079
  5.1114107780517797  4.1885052825178795 13.8935069827547384
 12.3098310574400607  4.1879369526758596 13.8941002774167792
  1.5810302015594400  7.3160252807478896 19.1374462312334686
  8.7811289908723609  7.3162441526790198 19.1372384818904600
  1.5182032985926002 13.0850207501653895 14.9597241003572190
  8.7196974860841205 13.0848599749537495 14.9603099028832496
  1.5111342891819399  1.6619700461497899 23.3891378396894183
  8.7114433242472611  1.6613436195882800 23.3910923868956893
  3.3783289763054398 10.8502600519477497 13.0197141393427493
 10.5775216928278795 10.8477912046476099 13.0192454744080308
  3.5037905369792197 16.4486619641314391 21.3866924559613700
 10.7041020201115202 16.4490744332879402 21.3856712824831199
  3.5528945844837603  4.8048697028347593 17.3061704659829836
 10.7529641409968608  4.8049425431326105 17.3057361120042792
  6.9789303380639200 12.5539719767353404 24.3084616657195696
 14.1773847463859806 12.5539231825117206 24.3107173791045597
  7.1526268824643395  1.0450871433272499 19.9789077129602504
 14.3531039701276413  1.0450246586380099 19.9785069145674790
  7.1046462096957397  6.9525830857834299 15.9441606091011412
 14.3047848881000412  6.9531180670553496 15.9438877324092996
  0.0811154033468400 10.6040900344466298 19.4048878351979894
  7.2818570262479207 10.6039222384833902 19.4058198404729723
  0.1540964561349000 16.5778659089389784 15.1611128861885387
  7.3549213133133007 16.5774527377073184 15.1614960266511094
  0.1907980203030000  5.2117829875560995 23.6337714597913013
  7.3907106125215005  5.2123049804375592 23.6348103884553780
  3.6808698779341800 12.7977017564990891 17.9248952180590706
 10.8820538809389404 12.7977607308125290 17.9243225624224394
  3.7905712154025397  0.6386983087504300 13.6493645730066415
 10.9908119926003014  0.6391276277107700 13.6498263448439605
  3.7540028548789404  6.8248134805277703 22.1681548632182128
 10.9551463927765607  6.8256503541184896 22.1684574614472680
  0.2891069180700800 16.0490372726836412 21.9271602516897168
  7.4856310975803799 16.0475595799906294 21.9296000117629930
  0.2466355480380000  4.3721051331282696 17.6791470551457088
  7.4478480638228799  4.3710125286605201 17.6799033137434591
  0.3854708986235200 10.1047573308507914 13.6601607739916702
  7.5856198013075593 10.1055587496459296 13.6611057816438901
  3.9869515484396403 13.2971624132928383 23.6679455503170679
 11.1860099092860601 13.2953163066596201 23.6655007128712604
  3.8474347712100396  1.4784109158986800 19.6043632421833891
 11.0465423814039418  1.4787428219305698 19.6037860919528590
  3.8859228482577803  7.3536459781964902 15.4011146837632715
 11.0864965625648200  7.3536154379270293 15.4012461595249395
  3.3439429954925401 10.2405105837883887 19.7816366094542175
 10.5446882184921193 10.2402050055749996 19.7802248269229999
  3.2841259188756400 15.9140657804366992 15.7330362793176004
 10.4839257560091212 15.9148382386314893 15.7332645432527691
  3.2960595253834399  4.2349693186818396 23.5161509763045693
 10.4962559493676792  4.2340022101489394 23.5178836208233726
  6.8839463472675000  7.4893702705337404 21.5964410580940189
 14.0847781166350199  7.4885927222940403 21.5959988613516707
  6.9434911124338603 13.1629647833910095 17.5501372970429799
 14.1444449971425001 13.1625954918568500 17.5486817419810492
  6.8961548572967608  1.6165161206222800 13.7671897098091893
 14.0964349475701400  1.6155017975348700 13.7673420586445108
  0.0040352784066800 11.6566507678520797 21.8975250239178365
  7.2039359182981606 11.6567643285092100 21.8970456833088285
  0.0143390483215600 17.5170525616881996 17.6596157854320985
  7.2151624654605602 17.5169375968807479 17.6600772335977503
  3.6040349917038399 11.7457648168733009 15.4323137205186480
 10.8042171592980214 11.7456624894187307 15.4313400047392904
  3.6143281053271603  5.8862637854674604 19.6697281875193291
 10.8152441169995797  5.8855745231791294 19.6701359390217370
  3.6144577088731600 14.6084320510382195 19.6894306628373066
 10.8145183371419797 14.6089529908069391 19.6883725085046208
  3.5878848058289003  2.9110709284771699 15.4446936374426596
 10.7889330131182408  2.9111618472103902 15.4446171058307211
  0.0148810791517200  8.7941307939519699 17.6406548143038080
  7.2145737773538396  8.7931322675556594 17.6411239844694308
 14.3882122747035801  2.9388234329956000 21.8394716783833012
  7.1868414985886400  2.9392908395333701 21.8390659479942606
