Na Zn  O 
 1.0000000000000000
     7.9883819999999996    0.0000000000000000   -2.8649399999999998
     0.9224690000000000    7.9349410000000002    2.8649399999999998
     0.0000000000000000    0.0000000000000000   35.4402180000000016
 Na  Zn  O  
   8   8  16
Cartesian
  2.7230875099249601  2.1440210581999999 22.7428163981897420
  7.1799673230238499  6.1052408084272507 22.7473527023834379
  6.0079377057390797  1.5066923102375200 21.3072306712439996
  2.4724884134479699  5.4776650551466899 24.1766200423239610
  6.1850064041289299  5.7962737258421102 17.7557988534308997
  1.7344222375705098  1.8261313725085899 17.7598200679146601
  2.9040724903869002  6.4262738416463998 19.1905749703713013
  6.4369990682862088  2.4588091341533302 16.3289390131411807
  4.3836039107263591  3.2547869500357400 19.0010829027280828
  0.8498401599899300  7.2228880397970103 21.8673687483815975
  4.7103679686810098 -0.0105979865490100 17.5686465620508017
  1.1779706060412800  3.9567037372559200 20.4332627731339187
  4.5278558847821300  4.6791989211160905 21.5019848318299793
  0.0720268904459800  0.7136792263609399 21.5021996830935578
  3.2777941309725600  0.0101137170997800 20.0703068202455412
  7.7317499749020300  3.9785864794974901 20.0688999165240638
  4.0015057668159404 -0.5681609781572200 15.9163402921411823
  0.4678001681713800  3.4013349948824398 18.7814021442597010
  0.5613742055571900 -0.0729696380865900 17.3495230956521382
  5.0171356297191396  3.8934736838009600 17.3486157420936031
  3.9869333643831300  0.5688812327517900 21.7214323966905596
  0.4543152942594100  4.5348101324143100 24.5860047511396225
  5.0871951012110497  6.5562904684619303 21.7889911795378204
  0.6334426431197500  2.5893328830481703 21.7891016972275828
  6.6396184169330903  0.3310313762767900 17.2784060656069798
  3.1057586536913799  4.2966883455112397 20.1453141111751819
  3.8246035969818695  1.3780468412267901 18.7149846841645200
  8.2781039913254695  5.3460074031829503 18.7125350664426620
 -0.5615823286047500  0.0714267681585500 23.1535204570326592
  3.8929234376726800  4.0429841595206000 23.1555508694887813
  2.2725746430346598  7.6032053977094609 23.2240262612297990
  5.8041654566223002  3.6354154369848004 20.3609812395518404
