Ba Na  O 
 1.0000000000000000
    16.9371639999999992    0.0000000000000000    0.0000000000000000
     7.8857340000000002   18.3983990000000013   13.9557540000000007
     0.0000000000000000    0.0000000000000000   41.8672619999999966
 Ba  Na  O  
  48  24  20
Cartesian
 12.3725794931488178  5.4008358596827701 18.7364087600593763
  3.9040980752061798  5.4008152534758898 18.7361055015249569
 13.8894540155987389  8.5824091801321316 21.7106487252814198
  5.4210003974225804  8.5827407192821106 21.7105359627891019
 16.9928653496717175  3.5718791646432400 18.7447203884691582
  8.5243150838860196  3.5718852361149098 18.7448610624694787
  9.7953522070575989  6.5139152652480607 21.6598429424019585
 18.2641288157146420  6.5138350482284206 21.6593638413671385
 14.9729911312010007 11.7344374315473416 25.6919431561355367
  6.5040442909815397 11.7344512303465915 25.6919381320640987
 16.1599993507398203 14.8973851327690525 28.3492173849163187
  7.6912838418547604 14.8971111806079417 28.3496777852407789
 19.6073230111746213  9.6711020597748920 25.6030013216455181
 11.1390652502843395  9.6712444633831502 25.6033927805452208
 20.9326617206580607 12.8119096795919720 28.3179036036486593
 12.4643557467207202 12.8112776945863196 28.3178512695711575
 17.6089656075104593 17.8452778117435500 32.7109613002549224
  9.1402334628093609 17.8455984958381215 32.7105589558670999
 11.0320743158872396  2.5055638897362003 21.4509868498970988
  2.5634441402023200  2.5054111830245001 21.4506491206502972
 22.2902317926911806 15.8373107659056895 32.7505317242615988
 13.8222874070959207 15.8375401939412210 32.7505973163054023
 15.6863215567182994  0.5666307646741701 21.4539650078006972
  7.2172612255748998  0.5661450469405700 21.4545478000877381
 12.3481842472091596  5.5658236866992601 25.6468879812493142
  3.8794284323881199  5.5662954216496203 25.6470356331266416
 13.6296002578753992  8.6940850702702601 28.3061927722370967
  5.1607749779132002  8.6942955479548214 28.3057641910317592
 17.0021450707373596  3.6276848205220600 25.6494064366161609
  8.5335626741325399  3.6271974469325503 25.6495224089319009
 18.3108349236290806  6.6864072472646807 28.3453646199095388
  9.8424258511870395  6.6860330238290206 28.3455438117908969
 14.9871749289493383 11.7193917727971098 32.7384415754563207
  6.5183511871850808 11.7198611159556005 32.7386200695499809
 16.3123524740084385 14.8599964582732209 35.4528508006706389
  7.8436635189292607 14.8600444780946113 35.4527687408371150
 19.7600749868242787  9.6337086016953197 32.7071502629525952
 11.2918867079954595  9.6336973786719309 32.7074088630742210
 20.9472913057507206 12.7965218106203409 35.3645339048447340
 12.4787589920003601 12.7965519839947017 35.3645505121919967
 17.6564751351888773 18.0170318339762794 39.3970377189839951
  9.1879715385744998 18.0171953957433928 39.3970646535892186
 11.0409628504834583  2.5606591834296299 28.3563829668076224
  2.5723026401978597  2.5612674345005702 28.3563649638849604
 22.0309351843892784 15.9484225611304815 39.3454285033467599
 13.5622207432751196 15.9483581667339802 39.3455500579641040
 15.6616604277759599  0.7321790069242000 28.3641944209940355
  7.1926056353396195  0.7320397310437701 28.3642411727699404
 18.7445988423954404 13.8657171709068407 25.0264529785026575
 10.2758931914668405 13.8656586639980208 25.0275356658979788
 20.0585965947832818 16.9386302827981616 29.3092867344415176
 11.5900144471476416 16.9382446523551202 29.3090189235222596
 13.2681168960320797  1.4162660707343202 17.7825361839827991
  4.7995423983230001  1.4160452899463201 17.7823615975002589
 14.5947701157086005  4.7125478894289801 22.2192010064402403
  6.1260863823292002  4.7125567206605004 22.2191469976722580
  7.4623554130481402  7.5528723048260904 24.9709238706819008
 15.9309548616379786  7.5526529959100106 24.9705536245282786
 17.3277291443528583 10.7351083356074302 29.2826083568649587
  8.8596681826928609 10.7346362326890912 29.2826668314742200
 18.5921083989356219 13.7965551972739711 31.7735655851384422
 10.1239508927969588 13.7962676302976011 31.7737464517102808
 19.9889085300928002 16.9784966696873205 36.0852213224682572
 11.5200724671987995 16.9785930772980791 36.0849787714637387
 13.4393677386250197  1.4205611769808701 24.8810386272214750
  4.9709435320892190  1.4207929968082702 24.8811219430728556
 14.7661297098379194  4.7165778747459406 29.3193800939644760
  6.2975623978756996  4.7166141195919709 29.3186451839588429
  7.3930385869871795  7.5927287565797901 31.7473972903705786
 15.8616107367097001  7.5927670252497110 31.7475397786189184
 17.1757860521476005 10.6654135443395202 36.0291447304180821
  8.7071815943758804 10.6655717705709208 36.0289570255267790
 18.8929465013719415  4.6935355358543509 20.0296187044693781
  6.1148922078975403 13.5314699605780309 27.2939847257678991
 10.4241440719877581  4.6933855889025002 20.0296460577472182
 14.5837387519277399 13.5313367561692708 27.2936475547512600
  0.6603359225771001  1.5695617151863099 20.0354678400858575
  4.5495810262180196 10.7249958395810694 26.9279167853379562
 13.0176656571358578 10.7249881122534898 26.9283534608806185
  9.1291195820106985  1.5699539690529900 20.0355556217785171
  7.2477984372143993 16.8909353771345003 34.0629616726379396
  3.2666138402217801  7.6403636834627111 26.9934892910823585
 15.7160708012572012 16.8910965471097434 34.0627640591612959
 11.7349649583274207  7.6399261695344904 26.9940483585875945
  1.9680493299236002  4.5627024967414602 27.0651190127353800
  5.9655529524235993 13.8058057283071793 34.1280111167224192
 10.4368209459689414  4.5627718587056902 27.0651720446005797
 14.4337550669736210 13.8059041597418304 34.1284563052750158
 21.3370278810498988 11.0000353460719715 33.7621420457869803
  0.6728478193152199  1.4395711387636301 27.0715184237320798
 12.8683894048204994 10.9999521853084925 33.7626768302802560
  9.1413656553250995  1.4390997717812501 27.0713170422018621
