Ba Si  O 
 1.0000000000000000
    16.2816420000000015    0.0000000000000000   -4.8265019999999996
     5.4272140000000002   10.8642090000000007   -5.2294689999999999
     0.0000000000000000    0.0000000000000000   54.3095270000000028
 Ba  Si  O  
  66  22  22
Cartesian
  7.8134643140171809  8.5747503460256418 12.9950485993549396
  3.3571976225054803  5.5172180812107907 15.4860348008184801
 11.3394463381256205  4.6550228302671597 13.5356201603414323
 16.1148268087248034  5.8125264028386301 12.9448771689886133
  7.6505767975137804  5.6585124427181999 15.7675215695003121
  2.2565695862777599  2.4915592327601401 18.1791553212588397
 14.1641739708835619  0.5269189167519600 15.8766734582382512
 13.2236759922701204  8.1944615297472616 13.7798598542664816
  5.4604255647123008  0.3984393243284100 18.6497717500289717
 16.2076910533967009 10.5136529163444603 12.5549563700191502
  8.3833646047356396  2.5519014396721200 17.7215897717572943
  7.6614981973345406 10.6539312570261906 15.8344365947744343
 19.4560499152705439  8.2441904908871404 13.2458734239042286
 14.1745688766741829  4.8874761620834102 16.0390565375762897
  5.3935671727249002  5.0029634642480403 18.8062597785288794
 10.8677336292031015  5.8109685839101202 17.9193688966139533
 18.5066223786464832  5.7489415554664198 16.0358118704195114
 13.0601775342867406  2.7143704704467999 18.9805043250884005
  8.6929422261037192  0.5035326204585601 21.1474483828697117
  7.7560843884643607  8.1264566875854900 18.8373833324439701
 16.3191364506404000  0.4690967717596200 19.1950459573605592
 10.8978425642158800 10.2723147257659200 17.9225315438545003
  3.1578568120954404  2.7515535516755705 23.1739110715577894
 18.4788294529360613 10.4665401653738694 16.0867397330040802
 14.2073572272387612  8.1373992275323808 18.3546650405610627
  8.6243654696196401  4.9517982546783603 21.0806383014680137
 16.3496348968019589  4.9373878592186706 19.2558123988069809
  5.4634967165706207  5.9176019903081105 23.2561779101724717
 13.0490913642489410  5.8845946764505808 21.2657593106929248
  7.5671589987138601  2.7131452049557803 24.1311585828882329
  3.2613068919464805  0.4287740427719400 26.3701424931995305
 18.7019257760176423  8.1215910429427502 19.2757569088925607
 10.8549724038363404  0.4553037892974000 24.4673895751670507
  5.4266816988508797 10.4089919070904209 23.2054042679648731
 13.8613561073689020  2.7426367521388202 23.5705156152552426
 13.0203361934963198 10.4355129622486800 21.3026461073727447
  8.7144905993857407  8.1511215926361000 23.5416445971792001
  3.2325615444512001  4.9796852668341902 26.4068875265323655
 10.8181203182449810  4.9466390591084402 24.4164979542715486
 16.2136683698077420  5.9268237481914898 23.5903190627013508
  7.6572755534818402  5.9124706071132307 26.5919864250068549
  2.0743087067749801  2.7268670268490505 29.3180998060410403
 14.0844756589264009  0.3976370024937600 26.7594629424886143
 13.1237508336399404  8.1126755471110794 24.4987693864864724
  5.3837982417970398  0.5919129606735600 29.7503491896707892
 16.2441673586907029 10.3951276554171610 23.6511837159210998
  8.5255189154998217  2.7377614383500699 28.8353330259392280
  7.5886306854620607 10.3607227697138704 26.5253145309706859
 19.5031352842196029  8.1498165838510204 23.8658106227557525
 14.0566481618628032  5.1152883038148609 26.8102232801613631
  5.4139672560688004  5.0532591025293598 29.7533761754453749
 10.8881094529004212  5.8611690517206005 28.8663140239115350
 18.3887147434208416  5.9767127391299413 26.8071285040882508
 13.1072174774546220  2.6199639707836804 29.6002605617734460
  8.6202017653109806  0.2102417824420200 31.8382232313841520
  7.8983144088638397  8.3122873528991406 29.9511389014885339
 16.3555785102140625  0.3504514613228700 30.2911480432495885
 10.8212078060174406 10.4657604410939413 29.0229559347640418
  3.0580105651568203  2.6697149862678300 33.8929065183054519
 18.3990744265926018 10.3373448388614015 26.9695008802506955
 14.0250102721219392  8.3726090264561108 29.4934759869478924
  8.6311067206733210  5.2056687449067605 31.9051469330922828
 16.4483920647071997  5.0516062217721007 29.9012442621393646
  4.9421908859260606  6.2090904560515510 34.1370966426698743
 12.9244216917400010  5.3469343162603202 32.1866308294374264
  8.4681857725316796  2.2894584366901802 34.6775728248584301
  5.2990960928040209  3.0286156515720903 16.3867375158022881
  5.4747157448071393  8.1562490647157393 15.7188060682490107
 11.3648416835072616  2.7610093246208098 16.1753552065383914
 10.2793880290792607  7.9811678823550505 15.3227802119661796
 16.6511027408341192  2.7445302751254301 16.4094930812144035
 16.1559359467056183  8.1247049425263302 15.5398825367384603
  5.7917494355848405  2.6337041531901604 21.1931552467169553
  5.0558191629126998  8.1645760463458803 20.8414159098587923
 11.0545144553415007  2.7412697087203499 21.6442296326198722
 10.6602954697771999  8.1219111025398902 20.8057792594498707
 16.5816276718887607  2.6835035144043604 21.6567801127152997
 15.9816414032727412  8.1807527449047903 21.1893346555414439
  5.6213045778585800  2.7423164752575002 26.8669142766610243
  5.2270859179271199  8.1229640616761714 26.0284438210551237
 11.2258094861408608  2.6996911858143600 26.8312260621393186
 10.4899708248410413  8.2305189702815404 26.4795193448487503
 16.4073742124658608  2.7394878698022600 27.3062900757276026
 15.9121505411346416  8.1196682952339305 26.4366097500333126
  6.0022109331137203  2.8830171077430600 32.3499202354669322
  4.9168922534978998  8.1031961988323093 31.4973613852443073
 10.8069394433228805  2.7079083302915099 31.9537934956903200
 10.9825788503849608  7.8355548891280504 31.2859202410169530
  2.8512677946607403  0.0538614889593000 18.5051105520103505
 13.5879245453229203  5.6239619766143099 13.5543656611707508
  2.5381222142647801  5.4996130650946498 18.0030325793210189
  8.3424423257328399  0.0215894647668900 18.5708155687683139
 13.5635561373743609  0.0706069288593600 18.4942211553739817
  8.1411800644782417  5.3935267802619000 18.3333296312700149
 13.6222693665905616  5.4671542851495305 18.6661376459592034
  2.8010292143776803  0.0098478622480500 23.6990478471385408
  8.1154298335731401 -0.0316642803409500 23.8492132825148531
  2.7449225675014000  5.4251751988577102 23.6317831126282520
 13.5680865585330022  0.0000860445352800 24.0379662093087489
  8.1408120450969008  5.4322164013527008 23.8364610742661611
  2.7388923900260003  0.0316681914561900 29.0531093782539003
 13.5366468706474201  5.4389637269942401 24.0409441538305728
  2.6594278824479600  5.3971870409160907 29.0065749769389605
  8.0534593533305614 -0.0097094522253900 29.2032007739318047
 13.5723781822756422 -0.0707482722184500 29.5815123146182444
  8.1404519494479999  5.4706278986930998 29.3394292311295857
 13.7434132495243997  5.3644585026614999 29.6696153287500195
  2.5121461027129999 -0.0215858795779200 34.3313973308814013
  8.0032378687716026 -0.0539157013622100 34.3971439717549856
  2.6936716489909198  5.2402461542489700 34.1184897372056142
