Ca Sb  O 
 1.0000000000000000
     9.4213520000000006    0.0000000000000000    0.0000000000000000
     0.0000000000000000   16.3870600000000017    0.0000000000000000
     0.0000000000000000    0.0000000000000000   37.6854080000000025
 Ca  Sb  O  
  48  24  10
Cartesian
  2.3553360215160803  3.0972633139490005 13.2486839207504019
  7.0661644589914401  3.0308708126178003 13.3643166960953614
  0.0060487906245600  5.6474413523860001 15.2208969888592005
  4.7046001700952003  5.6471095144210004 15.2194660739174417
 -0.1726900846868000 -0.0000083574006000 12.7678143461296010
  4.8832299461503998 -0.0000019664472000 12.7677483966656009
  2.3544291221725602  0.0000000000000000 15.3268517745756796
  7.0668772784837603 -0.0000004916118000 15.3064534169334419
  0.0060490732651200 10.7396179921316008 15.2209015111081598
  4.7046002643087199 10.7399488468730020 15.2194672044796810
  2.3553362099431201 13.2897902950976015 13.2486918346860811
  7.0661566392692805 13.3561996751006014 13.3643076515974411
  2.3521040267124800  8.1935316387060002 15.2369396670448012
  7.0695666976256799  8.1935298361294002 15.2248317223084815
 -0.0090157627964000  8.1935354077298008 12.7317595857337604
  4.7196476708690405  8.1935262309762003 12.7302672435769626
  2.3553483634872001  2.7383136136614006 17.7027577165539221
  7.0659391944651198  2.7284469648353999 17.7148249610496009
 -0.0000058412382400  5.4552376895166006 19.9826517908624020
  4.7107535377269611  5.4651081073664001 19.9705834158044837
 -0.0037356602815200  0.0000008193530000 17.6806725600496009
  4.7144713916532002  0.0000006554824000 17.6739702102367993
  2.3593082519463202 -0.0000042606356000 20.0290934034112027
  7.0620173682680800  0.0000065548240000 20.0334441837648001
 -0.0000179005688000 10.9318262433778024 19.9826517908624020
  4.7107538203675201 10.9219613971284009 19.9705849232208017
  2.3553491171953600 13.6487411424794018 17.7027498026182393
  7.0659369333406401 13.6586109048468014 17.7148324981312015
  2.3590619778050401  8.1935283612940015 20.0047192352249610
  7.0622263338554401  8.1935273780704012 20.0114200776214410
 -0.0039673313272000  8.1935280335528002 17.6562998992796807
  4.7146761176321608  8.1935272141998006 17.6519412049904005
  2.3493022108412003  2.5460763573190004 22.4644899073123199
  7.0720854018693604  2.5464373642508003 22.4659483326019220
  0.0000309020345600  5.0962630808978009 24.4367184264384036
  4.7105196055568008  5.1626885202196000 24.3211538616819212
  0.0032257767112800  0.0000050799886000 22.4484483596889639
  4.7071444062028007  0.0000003277412000 22.4605743934211226
  2.3643547991451204  0.0000077019182000 24.9536288178540850
  7.0570515620559204  0.0000039328944000 24.9551294508006407
 -0.0000348590024000 11.2907960997492012 24.4367252098118435
  4.7105148948808004 11.2243947494056009 24.3211421792054416
  2.3492913762864003 13.8409644698208005 22.4645083731622428
  7.0720886993425607 13.8406518047160016 22.4659347658550423
  2.5280291210355199  8.1935581857431998 24.9176158882611212
  6.8934563795223198  8.1934987007154003 24.9176773154761619
  0.0009020002404800  8.1935281974234009 22.3585479346345615
  4.7098107430323202  8.1935262309762003 22.3789432774441615
  2.3549707556990400  6.0204511501536002 12.9943533929481614
  7.0663844475606403  5.9604818847306014 12.9985602150432005
  0.0190039033327200  2.2448207430440004 15.2169468043926397
  4.6918072930684804  2.2457721757476006 15.2166370303388803
  0.0190012653541600 14.1422353240616019 15.2169468043926397
  4.6918060682927205 14.1412853661934008 15.2166438137123219
  2.3549741473857604 10.3666088498464006 12.9943549003644794
  7.0663793600305604 10.4265840146110005 12.9985609687513612
  2.3540147711116002  5.9120432102060008 17.7259218062892820
  7.0672798528547203  5.9080834410275997 17.7246163837561603
  0.0013236999560000  2.2814913781708004 19.9594684815689583
  4.7094145751807197  2.2854519667022002 19.9607750346643193
  0.0013289759131200 14.1055697689234005 19.9594688584230404
  4.7094078860208004 14.1016119661922001 19.9607750346643193
  2.3540149595386404 10.4750133485114016 17.7259312276412828
  7.0672784396519210 10.4789760673606001 17.7246152531939209
  2.3363470039195202  5.9487341652872008 22.4685071718051219
  7.0848768656932801  5.9477614294056007 22.4687924503436811
  0.0003663963792800  2.1731016278598005 24.6910402865968024
  4.7103162927806403  2.2330695823180005 24.6868263042742413
  0.0003738392473600 14.2139606663286013 24.6910414171590418
  4.7103118647452007 14.1540013970122018 24.6868296959609630
  2.3363306107670403 10.4383425495140010 22.4684875753929596
  7.0848566097864802 10.4392785783812023 22.4688165690048010
  7.0659086692846405 -0.0000144206128000 12.9173410005756804
 -0.0073472413572000  8.1935352438592020 15.3292824833916814
  4.7178947341159203  8.1935293445176018 15.3255444677721595
  2.3562877664951203  0.0000008193530000 17.5955272797766398
  7.0650251348940802  0.0000065548240000 17.6143191084758399
 -0.0009511796979200  8.1935239367878001 20.0898973018028784
  4.7116619444868011  8.1935190206698003 20.0710809775884798
  2.3626975833283201  0.0000237612370000 22.3560961219900811
  7.0587970559409605 -0.0000208115662000 22.3598164254678409
  4.7107761489717603  8.1934998478096013 24.7681242812444822
