Sr Sb  O 
 1.0000000000000000
    10.0197520000000004    0.0000000000000000    0.0000000000000000
     0.0000000000000000   17.4159599999999983    0.0000000000000000
     0.0000000000000000    0.0000000000000000   30.0592560000000013
 Sr  Sb  O  
  32  16   6
Cartesian
  2.4994869543194400  5.3663261136431997 11.5038374870344811
  7.5188706969922405  5.4433654385435997 11.5860218976789593
  2.5019536168668002 -0.0000297812916000 13.8479247008702409
  7.5187768119160001 -0.0000141069276000 13.8341398266612021
 -0.0044723163052000  0.0002225759688000 11.0492988521709616
  5.0125595901781601 -0.0002372053752000 11.1264663729890412
  0.0000131258751200  2.7854793835871998 13.7894834953550411
  5.0085388640956001  2.7786486699155994 13.7693086245055198
  0.0003456814440000 14.6296683360383994 13.7894146596587994
  5.0087065947440799 14.6379470126243998 13.7693702459803191
 -0.1965704004640800  8.7081976994999994 10.8801680435464814
  5.2090764851665607  8.7077353057620002 10.8861339040848009
  2.5089913904740802  8.7080315512415982 13.6551240317011207
  7.5116850318454400  8.7080083880147985 13.6544167374074412
  2.4997281297500802 12.0496722014687982 11.5036357894267205
  7.5185695032471198 11.9726732815955987 11.5861111736692806
  2.5045289937233601  5.9222266633619993 16.2698022633084030
  7.5161702736307205  5.9299858218611998 16.2898051952135994
  2.7014374606199199 -0.0002701215396000 19.1791955685900035
  7.3156697256421594 -0.0004801580172000 19.1731608723554423
 -0.0040688208921600 -0.0000047023092000 16.4041668370358380
  5.0130135851412803 -0.0001950587520000 16.4048933692533581
  0.0053058594740800  3.3416629426559998 18.5558270182545613
  5.0060153895544008  3.2658958536335998 18.4729287002800788
  0.0053829113669600 14.0743348499772001 18.5551843513612802
  5.0059132882815200 14.1526429275635994 18.4734769811095205
  0.0029835815530400  8.7081409234703990 16.2113210789827207
  5.0059325262053598  8.7083189145815982 16.2250527483086415
  2.5093962886523999  8.7083223977735980 19.0097067542265599
  7.5121322133772006  8.7081470190563994 18.9327370233129599
  2.5049905035004802 11.4941041224263998 16.2698233047876002
  7.5159666722700802 11.4867965597699992 16.2899293399408798
  0.0162434207572800  6.3438654875255995 13.5018521859496818
  4.9923275065447204  6.3432890192495988 13.4929841042445595
  2.4923645138077601  2.2611020697875999 11.5327803422666406
  7.5261488444500007  2.3140082730755998 11.5307841070756805
  2.4924405637254403 15.1548986835587982 11.5327722262675199
  7.5262846120895999 15.1020560485247977 11.5304958388106407
  0.0167625441084000 11.0723526170015987 13.5007490112544808
  4.9928094566159196 11.0722307052815996 13.4938236592646401
  0.0124531489707200  6.4468610367311987 18.5262099339103230
  4.9984397556597608  6.3945922575791991 18.5288704786588809
  2.4885426798024000  2.3641213046987999 16.5585592918509619
  7.5318214268472810  2.3641935809327999 16.5661531616942419
  2.4883428859475201 15.0517328062643987 16.5574383821947215
  7.5324425512737605 15.0513644587103990 16.5657632931439203
  0.0125544486634400 10.9690991374283993 18.5265721479451209
  4.9985484699689602 11.0225710110971988 18.5283125788675207
 -0.0016340211561600  0.0008915229924000 14.0205117227495997
  5.0104506327772000 -0.0006476995524000 13.9164577004023204
  7.5163744761764804  8.7078431105543981 11.1204461051973613
  5.0083089107871999 -0.0042642978060000 18.9388682097592813
  2.5065750270817602  8.7080390401043992 16.0388311485002433
  7.5142222334468807  8.7076161805955987 16.1428091209298401
