Cs Sn  O 
 1.0000000000000000
    13.8749520000000004    0.0000000000000000    0.2907160000000000
     2.4415220000000000   13.4805250000000001    1.0243480000000000
     0.0000000000000000    0.0000000000000000   42.8044289999999990
 Cs  Sn  O  
  40  20  60
Cartesian
  2.5951069269570599  8.2326667533892497 21.1414283524008404
  9.5325837582643604  8.2326690450784987 21.2867843950400299
  2.9408573607191402 12.5165861749342504 19.0363065089979315
  9.8783356819417989 12.5165798390875000 19.1816649563219492
  2.9943578767764203  3.0552042127442500 23.7818275768096399
  9.9318418587447201  3.0552046171599998 23.9271930500011258
  7.0692284463533799  5.9404620081132498 15.1661578490232110
 14.0067009829775397  5.9404674003232500 15.3115127413789693
  4.7431760846038795 10.8962245086345000 27.2923606801416483
 11.6806534744787207 10.8962199252560001 27.4377200905550502
  3.9330431429483399  4.5741407006332500 20.4979799293594631
 10.8705145153837410  4.5741404310227507 20.6433425214234099
  3.5553067955261399 10.4532966511777499 15.0075014102961308
 10.4927773253429812 10.4533001561142509 15.1528509878257704
  6.0539232840344201 12.7009959823872496 24.2642212029854605
 12.9913988511124412 12.7009966564134995 24.4095818108399598
  1.3589426479541202  1.3964818252835001 15.0681256576706097
  8.2964158729637205  1.3964818252835001 15.2134848836602785
  6.1106703519510397  6.8573877718520002 26.6053758750280380
 13.0481463620724796  6.8573839973050008 26.7507370271007190
  4.6358226246273206  2.5843021090285001 16.6817731673687213
 11.5732964701388621  2.5843017046127499 16.8271323771637498
  2.3097716938413000  7.5400594869502502 28.8079795110552510
  9.2472476694260806  7.5400593521449997 28.9533353605903194
  6.3846346131415999 10.4253225397240001 20.1923001575019505
 13.3221140342389806 10.4253199784242501 20.3376657490735298
  6.4381395846671197  0.9639421951970001 24.9378278561145699
 13.3756151606767588  0.9639413863655000 25.0831862168836608
  6.7838913273165797  5.2478558201162500 22.8327086179737684
 13.7213660839330611  5.2478612123262502 22.9780622727112203
  3.2683261938600801  6.6231399242530005 17.3687592891413196
 10.2058029298861399  6.6231370933427502 17.5141153880155187
  8.0200587552800187 12.0840435791322491 28.9060064465216371
 14.9575326984524395 12.0840437139375005 29.0513674094677476
  3.3250753364675205  0.7795286131970001 19.7099129247313165
 10.2625495738124002  0.7795280739760000 19.8552725610486398
  5.8236938162995200  3.0272282140170002 28.9666421955822280
 12.7611695155750784  3.0272257875225002 29.1119957336638500
  5.4459588974611597  8.9063836253404993 23.4761486859735875
 12.3834324166432186  8.9063829513142512 23.6215125779545296
  2.7985571465420795  6.6568250601229995 25.1306157675185595
  9.7360348293995607  6.6568220944074996 25.2759718764994012
  2.6980394959346601 11.9291744549432508 22.8010234148336721
  9.6355161741986599 11.9291728372802499 22.9463804561734506
  2.3628935254925798  1.2127674781152500 27.3947903142251299
  9.3003729620735598  1.2127665344785001 27.5401483181069295
  7.5173513689406199  3.7412612920857500 18.9455090088307330
 14.4548330666025606  3.7412598092280001 19.0908618846288469
  7.4349303769041803  9.1484279345732507 16.7972583133818816
 14.3723998711603400  9.1484295522362498 16.9426218584285699
  6.5804388776177998  6.8237012879295005 18.8435192884016800
 13.5179154326158795  6.8237012879295005 18.9888781561188971
  7.0161048663407595 12.2677573870794987 16.5793408318542603
 13.9535769813542014 12.2677573870794987 16.7247064552510025
  6.6809582253764797  1.5513528367459999 21.1731121728139797
 13.6184342509815188  1.5513506798620000 21.3184704456840706
  1.9440703236507402  4.3320989527002505 27.1768751672714011
  8.8815470519349997  4.3320953129584998 27.3222307795475885
  1.8616430313136600  9.7392645167457488 25.0286285424025721
  8.7991216598127409  9.7392637079142492 25.1739835427748595
  1.3302447830365201  2.8108714495874998 20.5640466229723593
  8.2677209140442400  2.8108706407559998 20.7094024271043509
  8.0020700451211599  8.2942389165215005 18.6532582487753515
 14.9395444366991619  8.2942399949634993 18.7986197172844314
  3.3619804234052202 11.1667833635682499 24.6917269084446822
 10.2994595413985213 11.1667829591525010 24.8370836604460479
  5.8264174006406400  0.1506966320910000 14.9135413987178911
 12.7638935370105191  0.1507012154695000 15.0589052970361799
  3.4987829190180402  5.6552498225045005 26.9435304211596609
 10.4362578834573618  5.6552479352309994 27.0888852669051090
  1.0522752317888999  5.5783341258172499 19.6496720762459987
  7.9897491261308806  5.5783339910120002 19.7950304504394090
  8.1148813553907591 10.9287476232494996 17.6715322193824278
 15.0523519429696613 10.9287499149387504 17.8168915555537417
  1.0319353904422000  0.3481148765585000 22.2075261521909759
  7.9694125337852002  0.3481135285060000 22.3528827946949100
  2.9684018162114603  2.8868572596602502 28.3936421042750773
  9.9058779061305398  2.8868569900497500 28.5390009427838578
  3.2603785801765199  8.4828201376304992 26.0717134246365099
 10.1978577071014396  8.4828182503570009 26.2170700697739214
  5.2401615694860402  7.3021407575885000 20.1986736620752723
 12.1776373932173403  7.3021344217417496 20.3440337692475701
  5.5300472364306010 13.0799288219535015 17.5894950025416676
 12.4675216822012001 13.0799355622160007 17.7348590211482389
  5.4238846075675200  2.3905969403670002 22.4425180645895388
 12.3613589824720993  2.3905986928352498 22.5878782972759886
  7.6176173858817400  5.2304980265157504 28.5477607961950994
 14.5550943172295604  5.2304962740474998 28.6931191172385915
  7.5413235146130404 10.2475548565489998 26.6214781973325465
 14.4787987708451809 10.2475568786277513 26.7668341875060207
  4.1388352038038603  6.1783889605952496 23.7754603687062627
 11.0763114836825398  6.1783843772167497 23.9208176156409280
  3.9551144934970202 11.0899295424907489 21.5316157813988305
 10.8925906501097796 11.0899265767752500 21.6769735705780704
  3.8489495904490196  0.4005919990837500 26.3846362468346491
 10.7864303311581011  0.4005944255782500 26.5299945213392476
  1.8376758252415399  3.2329675821512502 17.3526626384544720
  8.7751500768802018  3.2329709522824999 17.4980127122782392
  1.7613786382781398  8.2500283215367496 15.4263755438580095
  8.6988573656279211  8.2500257602370013 15.5717325600079892
  6.0170145407787601  2.3137409624054999 19.2824084073318502
 12.9544942215119399  2.3137413668212501 19.4277660856041585
  5.8802176106303392  7.8252761211322497 17.0306059840992887
 12.8176897667324212  7.8252755819112503 17.1759642926763405
  8.0487545222814010 10.6696546288545004 23.4100897663656298
 14.9862285142842602 10.6696550332702493 23.5554473254443799
  3.5525791231349002 13.3298263458302504 29.0605921402397591
 10.4900596863854609 13.3298247281672495 29.2059488349357288
  1.3769263553884601  5.1862856790627498 25.3208749763382883
  8.3144034487112002  5.1862863530889998 25.4662330479058063
  6.1186160153995193  4.9977067496430001 17.9024233524560508
 13.0560953876664616  4.9977039187327499 18.0477782224334184
  6.4105995792808796 10.5936673359239997 15.5804869450534174
 13.3480688936988798 10.5936694928079991 15.7258539496140290
  8.3470630168747402 13.1324116062992502 21.7666089633944608
 15.2845370255510211 13.1324113366887509 21.9119681863401290
  1.2641196649416599  2.5517764331137500 26.3026040599107560
  8.2015952076044591  2.5517769723347503 26.4479608051231700
  8.3267249149577616  7.9021904697670005 24.3244607993166682
 15.2641991189557995  7.9021912785985000 24.4698205322544666
