Rb Sn  O 
 1.0000000000000000
    11.7742860000000000    0.0000000000000000    0.0000000000000000
     0.0000000000000000   11.4376709999999999    0.0000000000000000
     0.0000000000000000    0.0000000000000000   38.2098050000000029
 Rb  Sn  O  
  32  16  28
Cartesian
  5.8791645083206800  3.2178032168263799 12.5546892428722519
 11.7662866678344606  3.2176373705968802 12.5545891331831516
  2.8864159366987803  8.5263840982752601 14.3616794477746019
  8.7733968047805604  8.5263856995492002 14.3616603428721010
  5.8005747992993406  6.9205505307311102 12.3825208288169009
 11.6877677222719800  6.9206520972495902 12.3824409703244509
  2.9252136219831000  0.8729903042254800 14.2324791057359015
  8.8123753430978411  0.8729818403489400 14.2324271404011018
 -0.0314342823056400 10.4735558559038395 16.3255572015167019
  5.8556175847207195 10.4735356112261702 16.3254058906889021
  2.9520379180911598  4.7466908821084202 18.0796887263781514
  8.8391455952331608  4.7467835272435197 18.0796784097308034
  2.9439208430656199  8.4299255292871500 18.2314764125445521
  8.8311157676668799  8.4298631939802000 18.2315226464086031
  0.0281171127108600  2.7096695849256598 16.2342181910563994
  5.9152283221386597  2.7095725934755799 16.2343091303923011
  5.8874398297500603  3.0075198054640202 19.9777095886144522
  0.0003619415516400  3.0074748554169899 19.9777202873598512
  2.9717664407413200  8.7278729700290096 21.9751286733816507
  8.8591045406603399  8.7280041601153808 21.9751061295967034
  5.8952592508255197  6.6907330641979801 20.1302950955092506
  0.0080976474536400  6.6908500715723100 20.1304590155727006
  2.9121030722649599  0.9638973708403200 21.8847269494380043
  8.7992240543501410  0.9638770117859400 21.8848347010881028
 -0.0183495182738400 10.5650197083429589 23.9778142155720033
  5.8687668718397994 10.5650533350956994 23.9778497506906554
  2.8570407415288197  4.5174568511729998 25.8274098814415503
  8.7440534001827999  4.5175096932130199 25.8274121740298490
  2.9353657646008799  8.2195431820706393 25.6556785875553999
  8.8225787038597208  8.2194625464900888 25.6555968185727004
 -0.0571866474162600  2.9116452439571696 23.8486956425160024
  5.8300126336708198  2.9115849674309997 23.8486620178876016
  2.9130417183448802  0.6299105150377200 18.0552241345307998
  8.8003258920340190  0.6297073820007600 18.0554480439881004
  3.0016256768087404  4.9398418060798805 14.2333464683094011
  8.8886952052641011  4.9399251867014700 14.2334817310191024
  5.9569740531516597  6.3127227270930906 16.2415239057724001
  0.0701733316456800  6.3126367158071695 16.2414195930047498
 -0.0162386242797600 10.9259529163845901 12.5760832947898020
  5.8709156790348000 10.9258967574199790 12.5761493977524506
  2.9273800906070999  0.5119986496850399 25.6340174491009023
  8.8143637845175196  0.5119988784384600 25.6339184857059514
  3.0137261105309396  5.1252099668193898 21.9691347012713010
  8.9011740645383401  5.1251821732788594 21.9691182710551516
  5.9452454513813402  6.4978550430565800 23.9772085901627534
  0.0581247047818800  6.4985586885765008 23.9768631735255511
 -0.0302249453905800 10.8076867119843296 20.1546855603349009
  5.8564656865413003 10.8078299116252499 20.1544543910146530
  2.8944887404089599  6.2749119599245793 12.7511709379471512
  8.7815746351218600  6.2749872197997600 12.7511239398870000
  0.0025848090055800  4.9908693739724397 17.7927674796526496
  5.8897721980638007  4.9909010563211096 17.7928423708704528
  5.1059860018444798  5.1185054328326096 14.6981377961923521
 10.9929562730688595  5.1185971629540301 14.6981419992709021
  2.8594949737026600 10.6860934034668791 16.5598165486970501
  8.7466166622449997 10.6861825029239697 16.5599208614647004
  2.1288893418309600  6.1372166981733294 15.7675473228655019
  8.0164074705829194  6.1370576001697197 15.7673432825068005
  0.8801007976422000  0.5800252273479299 18.6694463678077511
  6.7672520396424005  0.5799593463629700 18.6694761714556492
  5.8611278328258605  0.9355205090893201 14.0271151593907017
 11.7482508165396595  0.9356219612310900 14.0270035867601006
  3.8237729677875003 10.8574452702794400 19.5400793185177015
  9.7103742328886398 10.8576294167825402 19.5397044803306521
  2.9462499145792802  6.4470438758993396 20.4163814579955023
  8.8333442867781002  6.4469452831753191 20.4163917746428503
 -0.0488775337860600  5.1622963862834705 25.4590910513206516
  5.8383528314160600  5.1628704429909593 25.4584475982044509
  5.0723719459716596  5.3000974464914696 22.4417934280037521
 10.9592716892229003  5.2999994256509995 22.4415828919782001
  2.9173752443071801 10.5018913132858192 24.1821293027699511
  8.8045601607653392 10.5019543348530302 24.1820727522585521
  2.1628257776544602  6.3191788348657498 23.5110497333588526
  8.0498011118218198  6.3193000741783498 23.5111200394000548
  5.8030164329871603  0.7514015707764300 21.6497034061576521
 11.6900763065279989  0.7515932661423900 21.6496697815292514
