 K Sn  O 
 1.0000000000000000
     9.6843850000000007    0.0000000000000000   -2.4857410000000000
     3.2442970000000000   12.3745039999999999    0.5270010000000001
     0.0000000000000000    0.0000000000000000   37.9960960000000014
 K   Sn  O  
  32  16  30
Cartesian
  9.8609868115886528  5.9752575659987999 15.8087626011218489
 11.7383431109440401 12.2322389060784804 12.7577821690575401
 10.5273936944555491  9.1586977160307992 13.8615050623153504
  8.7685525678782312  2.7957468159669601  9.9870890043195111
  9.4784498305442000  6.2375896260963994 11.9538244847783410
 11.1517007972986004 12.3428920920816001 16.1958333436091593
  5.5442816713674601  3.0239702882191200 15.9985156415416014
  7.3729524285321304  9.3985464160657610 12.3872531517709916
  7.3928503199910800  9.2405747354521601 16.0602070272743589
  4.9061857216114300  3.1056074897529600 11.9343004682842100
  2.4050632737344104  6.3787775194447205 12.0476389639837311
  1.8899651462912701  0.0304265541802400 16.0797028808473890
  2.5355353142526602  3.2064410118519202 18.2967096997448380
  4.1240504615896105  9.4004377352571193 14.7107713302735892
  3.0754686699022606  6.3744315936399198 16.2065970271940003
  4.7234454622786703 12.3097347323586401 12.5339526022763508
  9.8262273460886114  6.2552669762955198 23.7686990950805921
 11.4752885065859900 12.1891923377388789 20.0934652492158889
 10.4278855859764104  9.1619439196651200 21.5908751478961527
  8.7711817751164993  2.9795553472271998 17.4785257646719820
  9.4174174775997308  6.1565760995641599 19.6938381186651092
 12.1443430040016693 12.1822092813866387 24.2538230642377890
  6.4011908062478708  3.0815226213826401 23.8401581284809083
  7.1580485707189005  9.3203557613859989 20.2404933357651622
  7.1754221874266202  9.1657630628346407 23.9112739861540042
  5.7614934162751705  3.1641001614754400 19.7754177579405699
  3.3987465821919804  6.2165367586961606 20.1044482057187039
  5.0716819037478205 12.3243601586362406 24.3473622310980815
  2.5369409878004201  3.3899218662462398 25.7873066599617786
  4.0211319210046197  9.4043670115122389 22.4374867766227624
  2.8111967241839002  6.3296200497947996 23.5425114785435596
  1.4468243025150500  0.2116374295608000 19.9649605547043905
  9.2317102942544107  2.8782252362827201 13.7812017136890326
 11.0146985043871108  9.5502292500015198 10.0510466764447113
  6.6393296320880193  6.1591323008554397 14.3541015393136409
  8.8521871910741705 12.2861668707654399 11.0087665482567498
  6.2708165835005207  6.1739637626246404 17.5538104928495606
  4.5973278908928803  0.0338701311533600 13.5351826818868606
  3.7687115853709598  9.5338732493395195 18.5746629835284018
  2.0260762747023300  3.4490624669981602 14.3381233818853708
  9.2792783845675100  2.7376514895679200 21.4365709749410307
 10.7825917659283412  9.0274836729064809 17.7267498418165594
  6.7112006793334507  6.1526330876096003 22.2380738962776334
  5.0363741562901998  0.0136286599804000 18.2202591007509405
  5.6972753694523099  6.2756972823995207 25.2888877781816888
  4.6672991942958504  0.0290089310020000 21.4200073045676902
  3.5370449749543700  9.0112797548986396 26.2507604196663706
  2.0741886510716103  3.3086550336171197 21.9929756738617499
  9.9786731346655415  1.7661005954236799 15.3060957417320598
 11.4112389588508503  8.1005817216247991 11.4944007071860312
 10.7902421665333712  4.3499457861694397 13.6018344329223915
 12.3078966467392608 10.9630894816519202 10.6106027906176816
  7.3255844153322602  5.0549840177847205 16.0639335220879609
  9.2173167373305596 11.2833348391947208 12.9167666729301214
  8.2040586628453802  7.4381880107141596 14.0911019978383205
  4.7101281915626805  4.9099221622141602 17.8765324451028995
  6.3828533205897102 11.0135879763003199 14.3278692420073313
  5.5625058532965905  7.2491177166080805 15.8423312012983111
  3.9645120818607302  0.7257144191137600 11.6253344288184710
  2.2004143046762801  8.0790536732709608 18.5930428789682978
  0.6010463319775300  1.9182224767613598 14.6105531801860096
  3.1124126131740697 10.6171500752386407 17.0209315327823916
 10.7257981595797425  4.4326546197496803 10.3951279288743592
  0.5801282633185401  1.7542551014696801 25.3789609107330811
 11.4371662693869194  7.9436366298630396 19.2813837107353194
 10.7055872918160802  4.2674632822673599 21.1649100937989978
 12.3513136093521609 10.4822038817079193 17.7092611291444619
  7.3427997430425300  5.4626423766033598 24.1489218221105091
  8.9880728049160599 11.3129228969839186 20.4592173728000368
  8.1702312637068601  7.5467190930263195 21.9739558842797642
  6.5964590820014308  1.2786338630173599 17.8967047778879511
  6.3463826321922205 11.1249842512686410 22.2082462438905424
  5.3356467450205809  7.2803208946593605 23.3808462879285806
  3.9802497155257304  1.1317775806217600 19.7098496427767920
  2.2436372190559899  7.5969780172772792 25.6905521892249702
  0.5153125111811599  1.8367956417955198 22.1731630666309201
  3.1403166999106698 10.4604269820786389 24.8067882666748289
  1.3306876458658499  4.4210934918975999 20.4659676109839523
