Ba Na  O 
 1.0000000000000000
    13.3447600000000008    0.0000000000000000    0.0000000000000000
     0.0000000000000000   20.9336309999999983  -15.5674939999999999
     0.0000000000000000    0.0000000000000000   46.7024820000000034
 Ba  Na  O  
  48  24  22
Cartesian
  3.3377718878504004  8.3963209265133294 20.6355917706864176
 10.0074198151356004  8.4030240844958399 20.6310940103199414
  3.3289930374844006  1.3635382222237500 20.7089587234344421
 10.0130605117400009  1.3865442826927499 20.7128979221162020
  3.5819780600032001 15.5703009718979093  5.0487324308501815
 10.0213266564268011 15.3232391187912604  5.2131970893124624
  0.0082672122676000 12.5917934068814379 15.6150928583045232
  6.6675342507488002 12.5687404550789985 15.6120856854885446
 13.3422937549044001  5.5600984140586194 15.6880726474767620
  6.6748208900516008  5.5533531794778002 15.6928585621571806
 13.1004458687388006 19.3181341297060776 15.7073329067285030
  6.6585939287868001 19.5658532988261271 15.5464915824947241
  0.0074439740232000 12.2836610347132495 20.4831221777010200
  6.6702353636204004 12.3163273378798177 20.4566728497200820
 13.3433136949112008  5.6680788974917489 20.6619341499835834
  6.6745774816291998  5.6792323360885488 20.6556923632642864
  0.0048705705048000 19.6019139902593480  5.1062345504628031
  6.6757594270224008 19.6145713009071869  5.0955561836284442
  3.3380418523452002  8.2874779774829985 15.6611153521666004
 10.0059546939352000  8.2761306934631396 15.6669198479794414
  3.3306469870388002  1.6726197252214798 15.8413024011941808
 10.0092090805564009  1.6394288252620499 15.8671456866337017
  3.3316307627460002 15.2863881827877890 15.6508174548856029
 10.0040788210220004 15.2749521401724877 15.6615207297103662
 -0.0014105411320000  8.3700816667363789 13.0483769100393037
  6.6721802289428007  8.3553071286491996 13.0489947838761609
 13.2261911401620011  1.4312991297528899 28.2747869608243576
  6.6220255498540004  1.2899935617856200 28.5018617450305420
 13.3439042005411999 15.3222204883067992 12.9490765360615043
  6.6660648592252008 15.2976935995456493 12.9523302979824386
  3.4542857880960005 12.5228461904835289  8.0489909443700789
 10.0596680201732003 12.6635042812439700  7.8230033939448607
  3.3367224559239999  5.5852993657379697 23.2753763985146200
 10.0095320237484007  5.6020492012463095 23.2729168901375623
  3.3378175269295998 19.5665916279914995  7.8073776775172998
 10.0147067213336012 19.5922861946898266  7.8047967426870422
  3.3361521008816002 12.5995673200895997 12.9379979289564009
 10.0173246963503999 12.6057689082733493 12.9423249139137013
  3.3358945470136003  5.6008712658299391 13.0012069361944818
 10.0093897686068019  5.6033885349576886 12.9902387026218431
  3.4520680224316003 19.4969860488986377 12.8238109831661600
 10.0419256279628009 19.7703905739193786 13.0089408672136830
  0.0003118670412000  8.3546935639245898 23.3223900747196815
  6.6713948898168001  8.3534164030972793 23.3340407872292843
 -0.0001377179232000  1.3563391465228498 23.3862743998474798
  6.6633469319560010  1.3501067859015299 23.3822906781328790
 13.2290366433368014 15.3918851002390777  7.9311721022296418
  6.6389044026448003 15.1185689151411591  7.7496426681944399
  3.3316715977116003 11.8117709379850488 18.1483154989036848
 10.0167898383696006 11.7986978854255504 18.1566676151096189
  3.3364761116544002  4.8405615785736300 18.2516494105768814
 10.0092343021527999  4.8454267637543396 18.2425064656757421
  3.3581530729032005 19.1526717795737369  2.4478917573622638
 10.0173756733335999 19.0549192589108962  2.5368584288228622
 13.3445179260536015  9.1160608182190188 18.0727317350100627
  6.6717341136160000  9.1100735904167092 18.0814266474338794
  0.0044727632092000  2.1433444467119100 18.1752215771585810
  6.6645567678975999  2.1580942831145098 18.1688580526362031
 13.3223564165692014 15.7365870604101001 18.3090704235457586
  6.6636744123664000 15.8341482476855990 18.2196253629945417
  0.0171094502436000 11.7155206146827702 10.4059451855313405
  6.7232226014667997 11.6340121730033097 10.4616167235245019
 13.3265073041672011  4.8899900680908299 25.8850525588971863
  6.6673316772920002  4.8064902100943394 25.9185572308338621
 13.3420879787051998 18.7930066693002296 10.4328070521032803
  6.7042476872228001 18.6650548738841700 10.3206276903392808
  3.3544840645888003  9.0655948579494599 10.4391100190740005
 10.0137816625704019  9.1501296746625886 10.4055152113470619
  3.3192345482868002  2.2411817485802996 25.9184773695896418
  9.9573561473100014  2.3224253798276098 25.8628822679920205
  3.3385935247236005 16.0950509989368271 10.3236197626860804
  9.9771671107680007 16.2238026683934002 10.4364956141316441
  4.9900035712955999 13.9607421353734491 14.2940030927519413
 11.6716326910040014 13.9715250487015492 14.2961808294875983
  5.0019321853644003  6.9018030684856795 14.2996232694358234
 11.6750580240008013  6.9095466279288900 14.2883650134499618
  5.0820542578520005 20.6810374349015973 14.0465630685699026
 12.1958246054787995 20.7140227666046073 14.0516332456907627
  1.6760622220628001 13.9772738424467704 14.2833857504940624
  8.3475451872955997 13.9550536304855086 14.2920121659442820
  1.6673972024996002  6.9111662629593589 14.2930744917348420
  8.3431614336356006  6.9002770067857790 14.2928191848332418
  8.1730250849676018 20.8118068970502605 14.1383499472435421
  8.5067261552416014 14.0794176108844784  6.6178598566794609
  1.6689724179700001  7.0455268895060694 22.0310929121594796
  8.3376537842884009  7.0553795122725287 22.0318206925039846
  1.6581878501760001 20.9113293562141500  6.4734932999960009
  8.3340086630944015  0.0005080592243700 22.0324707910534201
  4.4849088090664004 14.1747018471161095  6.7053292465671408
 11.5982098214839997 14.2105837653405889  6.7077166774469816
  5.0077509010672010  7.0471444311734395 22.0354826341175993
 11.6776034035232001  7.0539928685550892 22.0252809439495216
  5.0098481635488001 20.9166266115386996  6.4596829090437815
 11.6917783410428004 20.9288286157122876  6.4638596676839839
