Sr Sn  O 
 1.0000000000000000
    10.3651300000000006    0.0000000000000000    0.0000000000000000
     0.0000000000000000   15.5476949999999992   -5.1825650000000003
     0.0000000000000000    0.0000000000000000   41.4605200000000025
 Sr  Sn  O  
  54  18  18
Cartesian
  2.5912889263806003  5.2132480133029500 15.2073650259387527
  7.7738387932908006  5.0783616531761995 14.7902537966330030
  2.5911997862626004 15.4191094987489503  9.7969189114419493
  7.7739216106795004  0.0958591580455500 15.0826312588213511
  2.5913571289360000  7.5279137495360997 12.4365457770545014
  7.7738585906891009  7.7378911231582492 12.2240120514204520
  2.5912776283889003 13.0452919349804990 12.4847079755073018
  7.7738265624374003 12.8217866674158003 12.4357386443814004
 10.3438108969647011  7.7719607872117491 14.9828956976327508
  5.2038979923094999  7.7719873737701999 14.9829108825482002
 10.3173056011339010  2.6648542445656500 14.9965079119078517
  5.2304217380717004  2.6648094672040497 14.9964241616574494
 10.1318038754116007 12.8212628655712493  9.9118249805498486
  5.4160819466317003 12.8212908514222494  9.9117202927368524
  2.5913114187126998 10.3538882909558989 14.9976332022463019
  7.7738580724326010 10.3176144301822497 14.9689563598548503
  2.5912792868097001  5.1980265089440501 20.2247366994254527
  7.7738666754904999  5.1897221740906492 20.1981818582732515
  2.5913062361477004 -0.0076151055340500 20.2269182483365526
  7.7738554811501004 15.5319639976759500 15.0172882354857506
  2.5912894446370998  7.8528355432471484 17.6262233810861524
  7.7738774552257004  7.7179067379130499 17.5649533355840504
  2.5913050959834005  2.5225371745675500 17.5806740246037521
  7.7738453233227007  2.6648233046525998 17.6569867241466021
  2.5913275883155000 13.0106975362207482 17.6765950106497520
  7.7738166119126006 12.8770091259937498 17.6157253701195522
 -0.0014415822804000  7.7880678882778502 20.1850504823788555
  5.1840327024079995  7.7880661780314000 20.1850274199646016
 -0.0003042165655000  2.5910095343014499 20.2122523149456512
  5.1827991482867004  2.5910327003670002 20.2122238626638016
  0.0011959286994000 12.9412372759465502 15.0571129306691525
  5.1813563221907000 12.9411781947055502 15.0571011144209521
  2.5912656048381000 10.4130970230548989 20.2707013348412985
  7.7738579687813001 10.3770593317682991 20.2424884874943025
  2.5912980476950001  5.0865675711202494 25.3422702518976521
  7.7738280135556002  5.3118754384432494 25.4448039835810498
  2.5912759699681001  0.1047653441724000 25.6352078457112000
  7.7738173374717006 15.5159153559430489 20.0316710200856498
  2.5912074564588004  7.9093226513364003 22.8059465215684050
  7.7738925883155003  7.6868679415228494 22.7574159982210524
  2.5913687378816004  2.5186207101970499 22.7676121766020501
  7.7737901808311003  2.6594060212837500 22.8451689508731519
  2.5911985424470001 12.9930880613867981 23.0151247954932039
  7.7738887532174008 13.2036316820608484 22.8054890565558495
  0.2336104401043000  7.9097251811599500 25.3308206183457507
  4.9491078601684002  7.9096549055785506 25.3307362461875485
  0.0481925682837000  2.5155422665870502 25.4278501550452525
  5.1343200878098001  2.5156158071844001 25.4278853446616004
  0.0214160170008000 12.9606481067231982 20.2589562950844027
  5.1610790183717006 12.9606230749342490 20.2589870276948503
  2.5912528557282002 10.5189252076574995 10.1264263423163001
  7.7738582797352009 10.2129145418057998 25.1154303665350014
  2.5912747261525002  3.1103899253473495 12.3255193242799503
  7.7738951795980009  2.0717527474308000 28.0952362899159986
  0.0730391323606000 10.3840074411868493 12.4305793490982524
  5.1095428664526006 10.3839960913694984 12.4305545246118996
  0.0647053605380000  5.2357506587072997 12.7277570066409016
  5.1178664804478000  5.2357148990088005 12.7277701703560009
  0.0085831568504000  0.0009670666290000 17.5550705469086026
  5.1740029880148004  0.0009555613347000 17.5550246293827001
 -0.0000870670920000 10.3648394654060994 17.6204138811981039
  5.1826438786393005 10.3648150555249501 17.6204182863783529
  0.0150527600425000  5.1811089065375997 17.6934344599760003
  5.1675278913038003  5.1811090620145492 17.6934178239423545
 10.3500049950014006  0.0007195473246000 22.7300573930629994
  5.1976857552953009  0.0007315190497500 22.7300749619583513
 10.2915148773652998 10.3461744575585985 22.8104758760757989
  5.2561721414846003 10.3461868957145988 22.8104480975274022
 10.3562886477612999  5.1814633939836003 22.8685469315060033
  5.1914068704952001  5.1814738109392495 22.8685330940574509
 10.2985453377417002 15.4940565405886481 22.5118463747740520
  5.2491099638104011 15.4940187596897978 22.5119418894470016
  2.5913220947965998  7.7959958134353000 15.0389011381309015
  7.7738745529893007  7.8008281925182503 14.9337646704788511
  2.5912562762211002  2.5269034337543999 14.9196444093568008
  7.7738543409858005  2.5843503010559998 15.2543224335060028
  2.5910388157937003 12.8671447354240502  9.9949723949890519
  7.7738903079869006 13.2537095638402498 10.0316249457872502
  2.5912722385213001  7.7972010707516990 20.2065444969829038
  7.7738517497033000  7.7457179882981997 20.1610653124306012
  2.5913031266087003  2.5815501611865002 20.1657270296481030
  7.7738419028298003  2.6004603561841497 20.2582870704659506
  2.5912922432222003 12.9840358824038997 15.0800322542995016
  7.7738431466454001 12.9321221287989001 15.0343048248837015
  2.5913005353261997  7.4766001369580994 25.2100925075425053
  7.7736899500240009  7.8643231131748488 25.2477139388674523
  2.5912747261525002  2.5974881033309996 25.1707341395578013
  7.7738227273392999  2.6551933733234998 25.5047725315347016
  2.5912646719764001 12.9301883064947987 20.3089692911499995
  7.7738263551348004 12.9350399647195484 20.2022438490689495
