Rb Lu  O 
 1.0000000000000000
    15.4480039999999992    0.0000000000000000   -1.3565060000000000
    -1.8708340000000001   12.3224509999999992   -7.0069489999999996
     0.0000000000000000    0.0000000000000000   42.8947720000000032
 Rb  Lu  O  
  36  12  40
Cartesian
  2.1339533401870598  3.9292450402042900 15.7072903217176911
  9.8561270739889988  3.9280952323014797 15.0268231981106624
 15.0221357311501595  1.8164697533413998 16.7855791908117169
  7.2988194875744190  1.8165805321758901 17.4666492279110912
 13.9738041821907597  7.2604465376177396 13.2243979179564999
  6.2483874414090792  7.2657671255105196 13.9053365750648226
  2.4495305834502994  7.9103960639803894 14.8232511516670336
 10.1752811676573973  7.9129203180677390 14.1461500141893435
  3.7927209880645396  1.3300827732252898 18.7009224161929524
 11.5128319645392985  1.3317320100671299 18.0230957816060098
 -0.6695923193922200 11.3473479733042684 13.3173193336104934
  7.0550519365548396 11.3528185254257181 12.6409135892791014
  6.5149928320994794  1.0125037602973999 21.2573752515713430
 14.2322909292660214  1.0108763341938301 20.5753652468484525
  2.0016696294529401 11.2770099443021490 16.2036797742751517
  9.7256535286127992 11.2797451587506199 15.5274590295317623
  3.1650219499445393  4.5790431236441496 19.7938049700435101
 10.8880178309700177  4.5779614588953699 19.1178376128378922
 -0.7063916547037201  4.6648701038797400 20.5701313682165008
  7.0185896677664399  4.6576636880859201 19.8917585422419414
 -1.4157748661260001 10.2840472500250595 17.1529543072883257
  6.3094178977560791 10.2883012065592805 16.4769784973374840
  3.6692149888672798  8.2273762057896800 18.4285472250865219
 11.3963261897019006  8.2329288254347883 17.7556338193935517
  1.2575748512209799 10.2141896733874287 20.0356329888263716
  8.9823867357665783 10.2146926758372505 19.3676235905868523
 14.1183772189738388  7.9119120951269197 20.3102731684388047
  6.3929869488868798  7.9101647715751193 20.9849877082703600
  0.0085264907231400  1.3292768849298899 25.5384148699576876
  7.7334308125672004  1.3320658252647199 24.8622025696503215
  3.9364651592394999  1.9813341665360900 25.7826519905584277
 11.6591639818563184  1.9789052882194800 25.1028899950626041
  2.8823534842819596  7.4237202456128397 22.2216943782180252
 10.6075075290337981  7.4237064444677188 21.5455723416224600
  0.3279801167972799  5.3105061562698390 24.6590294799829621
  8.0488347244122398  5.3132158632447393 23.9762163289512458
  3.5922531241062989 10.2396732414024889 12.4035211746136724
 11.3132755322873209 10.2429952509675779 11.7227699419327021
  5.5887832115958398  5.2736095341385800 16.6267809222876828
 13.3174402465188795  5.2699337470052798 15.9458178694206829
  0.3336971241743401  7.0611527034310093 18.0297523170146512
  8.0593873985565789  7.0596816492306287 17.3466295619191300
  2.1304737232783997  2.1802393506182800 22.3392170018983229
  9.8565294068917595  2.1889215031438600 21.6578375234602021
  4.5882174557592199  3.9708138428567095 23.0627083546716136
 12.3123733916984772  3.9691639898923197 22.3853706800521621
  4.7207093674610796 11.3225139216814199 20.2765861419773401
 12.4452248734723590 11.3235292916438191 19.5995137347846260
  1.7615269720810600  1.3749377271103900 16.7719516054090896
  9.4864640892558807  1.3746433437559999 16.0927030036309802
  4.2177807977473192  5.8152404033533793 15.1888083655015027
 11.9416121049018802  5.8119436548128398 14.5115705677541396
  4.2204036259497997 12.0634929670918591 11.8514877829689418
 11.9437394702873192 12.0589846751689986 11.1731043344496239
  1.8322381783520396 10.3212445399607180 13.3753883146826240
  9.5586532830693596 10.3194986951030394 12.6961601619150812
 -0.0777865128606802  5.4338938155210803 16.6939470448031813
  7.6493955815793004  5.4373952399727292 16.0136353190756537
  5.0898762218520996  3.6935850654018498 17.8477097491585326
 12.8151958431655402  3.6961365521059095 17.1702136694004928
  4.9409605043487197  9.5793684201174791 13.7470047443958432
 12.6650416999930808  9.5757271358469804 13.0642756802678210
  0.9883223063035800  2.4641512093729898 20.6295032066359525
  8.7125627983231588  2.4635093329003999 19.9505561812727805
  0.9971835972427598  8.7840961627029994 17.0972271648901781
  8.7218808967356196  8.7840179151391489 16.4213097096442127
  6.0122852358346197  6.9532605263122687 17.8471276046865128
 13.7379786099379988  6.9561616009511997 17.1684970409988793
  4.1684989679804199  2.2876493502293900 21.8346519027262929
 11.8913358823364792  2.2879148990484399 21.1557791723436459
  1.4590682235363999  0.4544616043917800 23.2631243698451193
  9.1854209011851999  0.4562557532573799 22.5908061266096425
  1.4642472512746201  6.7794213023807499 19.7309625020883104
  9.1915748831357789  6.7794183449925098 19.0544386817053315
  3.3726745485859997 11.9878994127382388 18.9347258140289618
 11.0952780270616405 11.9869237210680595 18.2579998856854999
  5.0906730665856799  5.5467455327183002 21.8375987163961227
 12.8162226086603379  5.5461403771496895 21.1600861782149678
  2.5389179941044198  3.8042532442818695 23.6720302629512886
 10.2582917211911795  3.8079603304407099 22.9912451703000293
 -1.2458428750497599 11.2435945378028990 19.9816616547480024
  6.4796796222083382 11.2427340610495694 19.3066236890649314
  4.0901817896447392  9.5027963399299491 20.8260519095392915
 11.8175454915537799  9.5031174630030097 20.1529845188430912
  5.9662486709179996  3.4286012307301998 24.4935094975917202
 13.6892105064919196  3.4281558973510595 23.8158287697450852
  0.6984184575702799  7.8653701976999200 23.5960199224813429
  8.4196718344890797  7.8696179930086396 22.9115577259061425
