Li Sb  O 
 1.0000000000000000
    18.2134210000000003    0.0000000000000000   -4.9477490000000000
     0.0000000000000000   11.3705390000000008   -4.9781180000000003
     0.0000000000000000    0.0000000000000000   34.6342399999999984
 Li  Sb  O  
  32  32  64
Cartesian
  5.6375914596879202  2.8733410042748901 11.0622236054965395
  5.3043776510297596  8.2688849634554611 11.3732951679636400
 13.5699133230026199  0.4095606746889401  8.9825831900209394
 13.9306088162050496  6.1091853664710509  8.3582364664012498
 13.0933316602719092  2.9417699313254007  8.6844150797828110
 13.0788162922717497  8.7811660641218907  8.8405960312400680
  4.3404644002257200  5.4305525980022811 11.5715705987639588
  3.5682789146650098  0.0761373565547800 15.8311618930597486
  5.1793931491751399  0.8217729590726800 13.4836965187743800
  4.7622956087593797  6.9072107274314511  9.3263489941018776
 14.4735705667097321  2.1876521341242801 11.2131357538462701
 14.3610648081190497  7.9339437920701901  6.2026020574473701
 12.8324916119704007  4.7957578055941106 10.7740134374533785
 13.1039225824492007 10.4520821203995418  6.3959788124717196
  4.0003655541611396  3.5989271627848702 13.6556173522655993
  3.9607165758520302  9.3380141061042110  8.6894286880801097
  5.1357947726563893  2.5900198058418202 15.8689163897456496
  5.1209712335729094  8.4285235787375896 16.0236994128022303
 14.6461543872741693 11.2949779023617403  8.8756309391345898
 13.8741650602576296  5.9394178750477202 13.1366059602586915
 12.9092788485037708  3.1014254887106403 13.3350062053271863
 12.5754066246764609  8.4968419841490199 13.6460693012586169
  4.2828733808895096  5.2608948322803011 16.3502057905466103
  4.6449733109852502 10.9610145973304718 15.7256788340206093
  5.1100626693333799  0.9178595851867901 18.3118672148412003
  5.3809301165664403  6.5749141160068003 13.9349058842676374
 14.2523356023727192  2.0324326788245002 16.0197595513693187
 14.2126975521162109  7.7714092142101512 11.0536782513498100
 13.4511346800853300  4.4629880660416710 15.3821309448030874
 13.0339701142802884 10.5489684365215215 11.2251251467439470
  3.8529173473819598  3.4373966035185304 18.5054813379100977
  3.7403673301782501  9.1833672711484695 13.4945086439932105
 16.5056628931138789  5.2181163630437206  6.9151999339868393
 15.8933537242859106 10.8278929886394621  5.8051971344702888
  7.4127884005107401  3.4114020731944605 13.3985441780704200
  7.1359039675161204  8.7787142347973202  8.5541260982546774
  1.8680291084519298  0.7761788032635301 13.1670387712599695
  1.9975041292541000  5.8706911535808004 13.6971739812618978
 11.1530559211419114  1.9430966280093003 10.7427953601162081
 10.8450584117240414  8.0230485661221316  6.9453093193393780
  2.2545346584192498  3.5557325318208903 10.7188454925257677
  1.7531774612364499  7.6162363781202709 10.9515467484394087
 10.7710183054800996  5.3721231503591502  8.5915365416111982
 11.1211622174946001  0.0086613943778600 13.7576857876440783
 16.4708836371775398  2.5937361528085803  8.6295787325561797
 16.4204761732179421  8.4237638711121914  8.6585472665925582
  7.4602177880026304 11.1861842440935710  5.8992917730467891
  7.5184852537947799  5.8806100158666714 11.4680191959464395
 16.2145127981210102  5.5002005605389810 11.0099388252225499
 16.3449562265177484 10.5948257066031317 11.5429974575227874
  7.3689741949531404  3.3470961035853501 17.7633635283942404
  7.0613646314025695  9.4268013010018805 13.9652421630235075
  2.3210990660137401  0.5425467465550701 18.9027994585318027
  1.7072027796798301  6.1537420743018414 17.7971226446338484
 11.0765103767052118  2.5916468162673301 16.1535156050368514
 10.7997945999890508  7.9587071204313409 11.3093756676398698
  1.7935083500278000  2.9476222340433105 16.0510016287615791
  1.7428160281637601  8.7768440085426001 16.0776687920873584
 10.6947479658347095  5.4896924769221309 13.2404425551441491
 10.7523437206603809  0.1845557870359500 18.8079365726622783
 16.4597084284545687  3.7549532441213103 13.7572274090006523
 15.9581663650486192  7.8131508039953212 13.9895862558629762
  7.0928609182036597 11.3613969729386106 10.9509089677338380
  7.4422125464046598  5.9980377792191009 16.1165895364958587
 14.8971557276856910  0.5111080021578001 12.0899709954627923
 14.8432980953860607  6.0787936213049001  6.6626539243940588
  5.6214416192872196  2.7181138170085903 13.2407462192034391
  5.3840475257048004  8.1963306911503597  8.1072340668392791
  3.8708630310932599  5.5361777418727103 13.4415481935696395
  3.5190165284836801 11.1687136383308516  8.3342765061363782
 12.6725426236878693  2.9705474010697199 11.4533976181873314
 12.6810985603368298  8.5790433628578899  6.8939293494159486
  4.1084600221856196  3.8516375057652605 10.5018463249269001
  3.4831087689821798  8.0828436154991596 10.2411968950820587
 12.5961415116796989  4.7953516499410300  8.8163912472110386
 12.8334591088939209 10.6477365768480006  9.2525801692347187
 14.7281182423241592  2.0186711428835800  9.1534082989041998
 14.6668577650590795  7.7930760036854307  9.1740974996198208
  6.1709290564019907  1.0987919225596101 10.5715933402228686
  5.7790398013212805  6.4303901308065914 10.8332367925024968
 16.1336204386284514  3.2422832710210803  6.7578002934689900
 15.8887413575518686  9.0500578211531799  6.8563105894796088
  7.0610220369535606  5.4654915354199201 13.4399000617397224
  6.9472712089033202 10.6903760980979996  7.7449538809317193
  2.4362612520572702  2.6827864619787101 12.5810455133911496
  2.1022686375171502  7.7714204710437604 12.9390859825021298
 11.5308940683237502  0.2217374495659500 11.8142916659463495
 10.9035637447944502  6.0597192010162306  6.6803030158894909
  1.9466249376906002  1.1561143345257001 15.1400877134435987
  2.0155049996310299  5.5741171371216707 11.2687362863397897
 11.9702984961092600  1.4179719350154201  9.0924792085346198
 11.0527779248737907  7.4226937718802803  8.9454922018481291
 16.1813110065774808  4.6393161310572202  8.9866579399122397
 14.2955208985031899 10.2780231601468319  4.8631463389936300
  7.3642030071879798  3.9085744564592506 11.3381216108416787
  6.6636481744071201  9.4539511917937400 10.3960099951468408
 14.6939760918544007  0.2019958060487600 16.3768168550528799
 14.3414675313914710  5.8351096670042706 11.2677250294922295
  5.5327207671804404  2.7909698634187499 17.8152423845393386
  5.5413562964791705  8.3994868607040694 13.2552251563561274
  3.3696560946337097  5.2918195146093803 18.0440817170834471
  3.3176276362051103 10.8602782167030902 12.6174112804694278
 12.8286034108553206  3.1738004476157102 16.6009947071546975
 12.5912315376465198  8.6528371376193807 11.4663303599537567
  3.5471138266577502  3.5774606085013803 15.5343223124462888
  3.4860354836026701  9.3511593588313300 15.5543267010749080
 12.4339724895114792  4.9394318430040700 13.8755954430037391
 12.0412925898251597 10.2716312116479802 14.1352128688648015
 14.7299568871741098  3.2873297079666006 14.4667400469758114
 14.1038439487044496  7.5198436570962803 14.2073669581801898
  5.3813324510363296  0.7238222467949101 15.4558959887184066
  5.6174268348961895  6.5748873952401503 15.8918330329691884
 16.1105635225819199  3.5993685671088498 11.7684387508802182
 15.7765603442576197  8.6883145837640612 12.1286271938588968
  7.3104907179879302  5.3105009690702110 18.0280305609810085
  6.6828808184462805 11.1488182651263816 12.8936841831019180
  2.3242989819492301  2.3211366904201700 17.8527633884613905
  2.0813949642458902  8.1267300300559011 17.9512498237015876
 11.2650580786419390  0.6799855214936000 16.9623272784049384
 11.1517644074588009  5.9043323713823712 11.2682764434908584
  3.9182344999063701  1.0917568563749200 19.8448298006680268
  2.0324762653188300  6.7351229638197809 15.7195928947973673
 11.5489606891504888  1.9164703505383902 14.3117200123192116
 10.8491043410649812  7.4620314023100711 13.3700095130710395
 16.1969960404742608  5.7961671628047311 13.4403791109454005
 16.2657904993359885 10.2148951783781214  9.5691064446606475
  7.1601321886671601  3.9469765189401200 15.7630393682881191
  6.2441870783481903  9.9516219457829003 15.6157603516164905
