Rb Sb  O 
 1.0000000000000000
    19.4782790000000006    0.0000000000000000    0.0000000000000000
     0.0000000000000000   10.4402419999999996    2.1611300000000000
     0.0000000000000000    0.0000000000000000   31.9847199999999994
 Rb  Sb  O  
  32  16  40
Cartesian
  2.8796703256223202  3.2029195601998994 12.0314430573130995
  3.0982031759898101  8.4740395763336007 18.3384442809455983
  9.2154145464284412  3.0074738450582599 11.8356059453616993
  9.5612774909672993  8.4604162089502193 18.4235009828311007
  0.2312920970264400  5.9547903892980001 20.5366345367883980
  0.2221199702281300  0.6398186423013800 13.9933307971325007
  6.6928860627999294  5.9253282351788403 20.4620767360045974
  6.6669684595453207  0.6034230190676000 14.0933039443147976
 18.9539369745497197  2.2311624021166399 21.2261325158855989
 19.3020097298411315  7.1982429435553792 16.8001362392825015
 12.6229651268813914  2.0128567330917999 21.0344804137750003
 12.8391438324489418  7.1839081780821195 16.8845675102057982
 16.4098906413271202  4.6168845480569400 18.9822806931015009
 16.4318192878253200  9.7402536329921201 14.7591943431477990
  9.9602695840893496  4.5789229929255795 19.0737051414943011
  9.9689717000153895  9.7125142232053800 14.6840371271444994
  6.8554237306121699  8.4236485998939798 13.1135374110378979
  6.6378182411078708  3.2538031072570801 17.2624323922798020
  3.0702602212847800  5.8261449965570602 15.1662083835069001
  3.0444427363842301  0.7014554298137199 19.3816684264574022
  0.5205932358739400  8.2172151564618598 12.9186329473036992
  0.1767192184037700  3.2424821264419599 17.3447022871825993
  9.5191658413348801  5.8630804847046596 15.0725142820672975
  9.5090848580384311  0.7216998942710801 19.4623424921177985
 12.7829228966400805  4.5157310269649198 13.6848552811605995
 12.8158119707315805  9.8307459965634205 20.0563524489986982
 10.2624819001720002  7.4379664558359595 22.3049509855829982
  9.9160866142680693  1.9825788828651800 15.7262334836834992
 19.2443462326895300  4.4840143025858596 13.6071738136629001
 19.2563308281926524  9.8010195999192398 20.1514064155737991
 16.6041391421341515  7.2309756078834599 22.1125794739340975
 16.3781540970040496  1.9686194440918199 15.8049717640478988
 16.2071667517616085  3.3554831297531598 12.0706693423058002
 16.3163688012332599  8.5736567114128999 18.4654612385484995
 12.9536026798571093  5.8374805937109793 20.4778549300964983
 12.8703994580634991  0.6826611149701599 13.9978687773483994
  3.1286029260251098  4.5353730894588802 19.0701232364079978
  3.2119101618285804  9.8203754953799791 14.7473848129135003
  6.4789465801862196  1.8623559465528998 20.9923914963957010
  6.5778956531578494  7.0893351415227004 16.7613783111326988
 12.9984360294142007  8.5781626154576802 13.1548619888028000
 12.9005752078903004  3.3496221866991998 17.3872270384719982
 16.3466312294016092  5.9085813561938991 15.0746449237567006
 16.2667184732794716  0.6197578217008000 19.3969438857440011
  6.5229135358933901  4.6013809974917796 13.6716044244964987
  6.6108059585734598  9.7560936725569398 20.1504342907134983
  3.2674213091506799  7.0863308574847794 22.0747924799351019
  3.1615307618918203  1.8675850461610197 15.6775267773763005
 11.6781548422320309  4.7189596293102998 21.3844852075427028
 11.6791688814367713  9.9628685119024603 17.1571651773131002
 17.3429436419892902  2.0764579565388597 12.9352663382375006
 17.6287980993677387  7.4582044473432791 19.3670852720220026
  3.7592801878438200  5.9010325392157998 20.5410717064461998
  3.7244489345532301  0.5730271941063800 14.2028491501622991
 17.6979765707157704  4.6583531892809393 21.5215641951622985
 17.5093763812531584  9.6943941391901784 17.4125409950164993
 11.7251985868900412  7.0909255035865595 19.6221278928303953
 11.5501137908771607  1.8175222065274601 13.1466146272141007
  1.8113100964071200  3.3898722428769599 19.9136112153040017
  1.9863818419730701  8.5676470993128593 15.6075646721491008
 13.4640648732575698  4.6463342782881201 18.8609195968773982
 13.5053336977576617  9.7537301061705595 14.6960270024735991
  7.5947296013687700  3.1591686820746996 20.1286612306471007
  7.8890908075348900  8.2069786035832788 15.8599983557075976
  7.9527364737329700  0.5690608417681600 11.5354169104087987
  7.7718317627376807  5.9679496879244800 17.8133683136447978
  1.9483485543976700  5.6979879983368802 18.0607512880940000
  1.9344192475191899  0.4973526660056800 11.6807080178235996
 17.5319394352983906  4.7483961004341397 16.0795704946714970
 17.5443603442511105  9.9429438320575603 22.4629610305662020
 17.6680659202661587  7.0470518482154398 14.2294150784387998
 17.4897103316436002  1.8753181334104199 18.5362422823200994
 11.5280051650809998  9.8704093111407794 22.6104188477263008
 11.7037235895097496  4.4669255056754205 16.3345497187995008
 11.8874099935290296  7.2787775087095001 14.0212476907730981
 11.5901303568203407  2.2337858261263999 18.2915999727623984
  6.0133736390035795  5.7954888963627793 15.2880125501947006
  5.9753138609687406  0.6857078907930200 19.4556364321563002
  7.7522777132323704  3.3492540637662800 14.5257226217362003
  7.9280921655765901  8.6155512101080802 21.0002162186172008
  7.8007012991747393  5.7198954889424201 12.7684533843801002
  7.7965995631829204  0.4771506933332600 16.9849665384695001
  1.7821380622971901  5.7819200270426396 12.6186962200052015
  1.9686012897707099  0.7468849944501000 16.7308292988249008
  2.1364179607575302  8.3661571104677392 21.2066744288338995
  1.8504992250583800  2.9850635523979996 14.7758715113084005
 15.7175461221083612  4.5399657519146803 13.6063165857149997
 15.7551164109919313  9.8681037924999195 19.9419163560619985
