Sn  O 
 1.0000000000000000
     9.9060880000000004    0.0000000000000000    0.0000000000000000
     0.0000000000000000   13.7429740000000002   -0.5800270000000000
     0.0000000000000000    0.0000000000000000   35.4346800000000002
 Sn  O  
  40  44
Cartesian
  0.0332156083684000  1.3143732233191001 17.1348003600054497
  4.9834681718308804  1.3147423596007399 17.1323660092234320
  4.7893503535396000  4.0434421432896404 14.0586213655515788
  9.7429928793765601  4.0436665660550597 14.0584779506202686
  2.1873446678345601  0.6589218682716600 13.7491503269459709
  7.1408923924093601  0.6588770661764199 13.7488304709395894
  2.5592198057198399 11.4660314710524798 11.9491637621401594
  7.5132412394228005 11.4657384708467998 11.9498213938386009
  2.5826736577904001  9.6806800695555992 15.1206369586129998
  7.5358618904316810  9.6804398423700793 15.1206346953469613
  5.0127345200963207 12.2292673220250396 14.7966708755682799
  0.0594367261217600 12.2296053991854414 14.7983666845608806
  0.1351493529492800  8.5170432208120008 12.4249159789040000
  5.0883949418400807  8.5167427994003599 12.4249066887926212
  2.4179389805420799  6.5620914263380001 13.0480161690673988
  7.3708043737754405  6.5618748370677604 13.0483491832681207
  2.4902156807467999  4.1904816578591406 17.0690112786474302
  7.4442039290549600  4.1898670720618600 17.0687707486612688
  0.0610661785368800  6.7953779976987798 15.9657675441372113
  5.0140638180450399  6.7947867749573003 15.9656907993671489
  0.0858808299160000  2.2725877927761400 22.9067885147417307
  5.0323543198673599  2.2829297930003598 22.9035275286806197
  5.0613459723125604  4.0650952982645601 19.7316236109209200
  0.1050158257403200  4.0593140413919802 19.7354759243434081
  2.5375263645477601  1.5133866041105000 20.0612545607801529
  7.4883885486657604  1.5130742263114800 20.0552342818302591
  2.5092940137477600 12.4280197237401797 17.7226343359869105
  7.4603786886022405 12.4278983732797599 17.7212621116137221
  2.3136460020431202  9.6998967326700605 20.7953883322019699
  7.2666298720889602  9.6984369539717807 20.7963850638751104
  4.6630969647969600 13.0879313609993204 21.1088370604423403
  9.6180954359593613 13.0807252325824201 21.1042536921873918
  0.0137034877739200  9.5526800711656996 17.7849984543713475
  4.9671580951215200  9.5521611364674595 17.7853197792368682
  2.5373735136099200  6.9480570790789207 18.8888309156237391
  7.4909264884113602  6.9472588871489993 18.8891541049274991
  2.6109874366337604  5.2278381665494598 22.4287462022194717
  7.5654048166740804  5.2254570588742197 22.4302977478434897
  9.8481007326744017  7.1813760838583409 21.8065004851062305
  4.8939812287002402  7.1811417661516392 21.8060291716121810
  3.9104230868342400  5.0669579654348205 15.7728404960039885
  8.8637151352777614  5.0671035035294798 15.7728641186492595
  1.0048450371865600  8.6393128113331201 16.0560999706490399
  5.9584558635419205  8.6387914028995603 16.0562491873746218
  1.5465249862803201  9.8108206735757406 13.2347509459539303
  6.5001460159063207  9.8104299608249210 13.2345261259507403
  1.1895425620333600  5.7524805967511403 14.5439133996390293
  6.1425278189315211  5.7519293660640001 14.5441290748343999
  3.2980807336362403 12.5317221440980813 13.6420259363277605
  8.2512926418278401 12.5317483931784199 13.6429673909641895
  4.0191110993961603 13.1776581388074003 16.4983191807711016
  8.9717486526055215 13.1785084166087803 16.4996737513438099
  3.6704072919516801  5.0749390601555797 12.6941643716356101
  8.6237383703819201  5.0751820359359003 12.6942777837914491
  1.1155758832158400 -0.8559154441742800 12.7760787309459403
  6.0691791809443201 -0.8565455595321799 12.7763080115534908
  0.8100425100927200  0.4771271970346000 15.3377774258806987
  5.7630696697431203  0.4769812466507200 15.3368665362490404
  1.3676296552968801  6.0107300435152604 17.4414137612821669
  6.3208199682166404  6.0098528294848395 17.4417186705863791
  3.8297606850157599  7.8001063498075203 14.2545461820398405
  8.7824469761780808  7.8002109338396606 14.2548383563059708
  4.0245807458853609  3.9364988548030602 21.6168916707382657
  8.9752766067858403  3.9297484434039998 21.6219354517243971
  1.1946877841405601  8.6692708454962411 22.1599786504706806
  6.1476673945685603  8.6677327318461597 22.1606452479589215
  1.4335421892659999  8.6762045881684600 19.0818162394699691
  6.3874187959624003  8.6757146511453609 19.0818677456041215
  3.8442773635536001  7.7325579834406408 17.4125530805276831
  8.7974623271858405  7.7322923317532197 17.4130401802019890
  1.3542212698844800  5.9428132280154395 20.6006367372522803
  6.3057320055838399  5.9426022733645407 20.5991605732279339
  3.2900042010289603 13.2656288393977615 19.5174116870391217
  8.2367738830115211 13.2649881419498801 19.5188500912022604
  3.5843830218814401  0.8664672996114799 22.6472611776106589
  8.5509250573902396  0.8483396297567800 22.6673037911854109
  3.4816201377349598  5.1039103487855000 18.7971818217494508
  8.4346456133504013  5.1025199721059202 18.7986795054358389
  1.5438747114967999  0.5639511838744000 18.3569969945912028
  6.4940859665723201  0.5647268373269601 18.3561078016517207
  0.8188764621884800  1.2095405807794402 21.2095711150838824
  5.7770711326440809  1.2133190740510000 21.2154284511244988
  3.6664125629047999  7.9908487965564996 20.3095924628367506
  8.6191506629073604  7.9898337404968602 20.3108510675017726
