Ca Sb  O 
 1.0000000000000000
    16.3870600000000017    0.0000000000000000    0.0000000000000000
     0.0000000000000000    9.9928530000000002    3.3309510000000002
     0.0000000000000000    0.0000000000000000   39.9714110000000034
 Ca  Sb  O  
  48  24  10
Cartesian
 13.4191505660906003  6.3071858302970396 16.2218549281382423
 13.6655867124182002  3.3078860629670701 19.4387652190917741
 13.5228729539724011  0.0599629138547400 16.3227812898164331
 10.8608681432600012  6.6765512560219209 19.2756945812270537
 10.8761618586168023  3.3702036927027299 16.3886237911676318
 10.8709368445358017 -0.0146629129210200 19.4631245353661697
  0.0000181896366000  8.4935798968573799 17.7746396052434221
 -0.0000108154596000  5.0423219750439898 20.9894213481731740
  0.0000049161180000  1.6364776729029302 17.8413579286592103
  0.0000075380476000  4.8670417374263106 17.6472520538335331
  0.0000091767536000  1.9595587017450602 14.5911133239464217
 -0.0000003277412000  8.3671118482173306 21.1009787193827805
  5.5262474088734006  6.6765496571654408 19.2757076385546320
  5.5108927336534013  3.3702053914877403 16.3886223588587505
  5.5161002135802013 -0.0146762034155100 19.4631444877620510
  2.9679117280978007  6.3071898274382399 16.2218714496548202
  2.7214392024970007  3.3078906596794502 19.4387547599059332
  2.8641813105566003  0.0599671108530000 16.3227682991078886
  8.1935329496708018  5.0236632199938596 17.5159872404864991
  8.1935406515890019  1.8255573410139001 14.6261100252539205
  8.1935314748354013  8.3537605971810898 20.9911216929931506
  8.1935278696822014  8.1865634784265797 17.5231738600845830
  8.1935340967650010  4.9929515852977806 20.9894355709218736
  8.1935391767536014  1.6441263025176600 17.9089945192518591
 13.7095646653402010  6.6765689433717297 22.7288326718708724
 13.7044686174214014  3.2917151285998201 25.8034843747650591
 13.7196350053220009 -0.0146168458686900 22.9163164541770392
 11.0575476038272011  6.6019952792886301 25.8691433407210809
 10.9148451524528003  3.3539288326642800 22.7533854497737522
 11.1615051460200014  0.3547843542699300 25.9701144703796913
 -0.0000293328374000  8.3011979905440310 24.5317998713587322
 -0.0000925868890000  4.8364200384072307 27.5658293947058226
 -0.0000473586034000  1.6382643950193299 24.6760287247248904
 -0.0000465392504000  5.0178244959144909 24.2830307726222934
 -0.0000134373892000  1.6690263936945300 21.2027266896541988
 -0.0000411315206000  8.4681919545970494 27.9997423414346329
  5.3291202538270008  6.6019497118789499 25.8692296789684626
  5.4721955108164000  3.3539075478873901 22.7533695611377027
  5.2255691107222004  0.3546741331013401 25.9700009848810396
  2.6774932043420003  6.6765692431573198 22.7288215798043183
  2.6826780701260002  3.2916341864905205 25.8034865731919894
  2.6672621073016001 -0.0146246402940300 22.9163090594659380
  8.1935624463788006  5.0254335538313404 24.3508932016867625
  8.1935568747784018  1.6196218283910599 21.2025848240426598
  8.1935812914978001  8.1610749081365395 27.7485128606234710
  8.1935716231324012  8.2875432565621807 24.4220419407563405
  8.1935706399088009  4.7023722109096200 27.6010996003927005
  8.1935547444606023  1.7947173980853002 24.5448360597733100
 10.5015320360976006  6.5236297272061501 16.1166173663247001
 10.4743422984044017  3.2718655252576805 19.5518772836149530
 10.4068023751320009  0.0816151279495500 15.9994063461287812
 14.1430405841900022  6.7752624566694601 19.3112104464850809
 14.0523600018798014  3.2303341289758500 16.1586465447182412
 14.1005196047726002 -0.0290361330335700 19.5019950336588437
  2.2440428493058002  6.7752589591709107 19.3112364612117133
  2.3347121245446005  3.2303372267602799 16.1586463781707224
  2.2865285965442004 -0.0290570180963400 19.5019936679687937
  5.8855269806788009  6.5236205337813900 16.1166206972755397
  5.9127273699610008  3.2718347472704399 19.5518882091337005
  5.9802654906568007  0.0816353135126100 15.9994382566387312
 10.4800754752160010  6.6910956537063599 22.6899549787255026
 10.5283771539190010  3.4315393247740800 26.0335348355152227
 10.4374799346756006 -0.1134364689712800 22.8809111431790306
 14.1738408828130016  6.5803217804169298 26.1925835377370113
 14.1062241042292005  3.3901169505184803 22.6401449770941312
 14.0789639021780015  0.1382459249714400 26.0753808782273815
  2.2130703226822002  6.5802129582477606 26.1926004256572504
  2.2808108235690003  3.3901164508758299 22.6401803851023722
  2.3080690591730004  0.1382424274728900 26.0753901049613894
  5.9070073027974006  6.6910754681432998 22.6900597704411702
  5.8587052963532003  3.4315221370669202 26.0334711477335539
  5.9495748214652009 -0.1135573824925800 22.8808616452474034
  0.0000368708850000  3.3461181189738900 19.4035071705767024
  0.0000140928716000  0.1178862864121800 15.9907167948464224
  8.1934816581730008  6.6841220413117801 19.3464429794749115
  8.1935598244492009  3.1586333102017199 16.2379308704335905
  8.1935934179222016 -0.0535841759992500 19.5043396231853485
 -0.0000301521904000  6.7154815126678500 22.6874607961919708
 -0.0002469529942000  3.5032708216069204 25.9542363532587288
  0.0000979946188000 -0.0221583520992600 22.8456469661566466
  8.1941368128318004  6.5438841410233204 26.2012375810812124
  8.1936112798176026  3.3157995031862999 22.7885586256603219
