Rb Sn  O 
 1.0000000000000000
    15.1681849999999994    0.0000000000000000    0.0138870000000000
     2.5363050000000000    9.7436539999999994    2.7444720000000000
     0.0000000000000000    0.0000000000000000   34.6854319999999987
 Rb  Sn  O  
  32   8  30
Cartesian
  9.6471721323758004  8.7368721451977791 23.4266336232739114
  1.7915040512083000  8.7862331066156187 22.8142796577981741
  6.0811538271714500  8.2466417276631194 16.9092829538587495
 13.4604629490579004  8.0519897311723803 16.7343043045188296
 11.6202883189626984  1.4977157641556800 20.5344625220516974
  4.2446513873486502  1.6920081223772798 20.7087106583759102
  8.0559769895010991  1.0065312480213400 14.0157172807171495
  0.7442948063062000  0.9584564489314999 14.6180883568196105
  9.1038676446502986  0.9394678211432199 23.2165745118087692
  1.1488663284378500 -0.1816735467992800 23.2079340662673062
 13.1936014687800984  0.4522341618328000 16.8982211504230193
  5.7953926214690501  0.4678012080824400 17.2229152552041285
  4.5116093226100507  9.2915975624161593 20.5463957457063522
 11.9105539760036994  9.2747473743712607 20.2202430600805521
  6.0638712087878490 -0.9397949156079999 11.4829746002731898
 14.0221830612181009  0.1828396673100000 11.4931815430401798
 11.3016175494389515  5.3364247869568597 20.0695527893488972
  3.9329790746437996  5.6088134089173192 20.0597166382425023
  7.8878375274077497  4.6591947464734398 13.9046809621686478
 15.5300839106341488  4.6190615125762999 14.1994210593291807
  9.8162571970723995  5.0851824275264397 23.5395927628922230
  2.1740954959618000  5.1253968260614000 23.2432089503623835
  6.4038177122808495  4.4090221428156795 17.3732563477545092
 13.7715517356930484  4.1328553215801795 17.3836193955153000
  7.7924521927560999  6.6263406627872801 20.6536538679881758
 15.3328676449540495  6.3957640088716197 20.1981411220467386
 11.7443920635759493  5.4363337791593596 14.4265602573615688
  4.1567118775164005  5.5643680235059403 14.5030704137122690
  5.9592870485753995  4.3080981541759993 23.0170698217206784
 13.5475747090799992  4.1790085746646799 22.9400325611527762
  9.9111181482157988  3.1156618852962596 16.7898862258653878
  2.3717604500578999  3.3489781624071000 17.2476717891543494
 11.6649278920200992  1.9491599105221600 13.8709005267551397
  4.1903517155155496  2.0381489948137799 14.3053609528562387
  7.7744046328226490  2.7303326210909997 20.4368402212697688
 15.3543308091961990  2.6496826430752796 20.3298231856240790
  9.9294849935130500  7.0126465334329593 17.0072139932140693
  2.3506964275847499  7.0946023559577593 17.1136165881716487
  6.0398006697713491  7.7944543353695188 23.5731635773728456
 13.5137557536042490  7.7056367393883001 23.1395697675280410
 10.8712345321436512  0.7431987678346399 15.3577251851712706
  3.4201234929682998  0.9140324995589200 15.8046393224999200
  6.8878200365193507  1.5557701111088598 21.8076781518630582
 14.8628182806042499  1.3645889990460001 21.7911874860698731
 10.8165221735956507  8.1879122429242788 15.6367356651958094
  2.8434402957448501  8.3805432107023403 15.6536212026618600
  6.8341546267421496  8.9999062746989988 22.0858545674960283
 14.2845361589497504  8.8292890469665988 21.6385577598831134
 11.2802242309705516  5.5408152733109803 17.2501932673471181
  3.9012006021871497  5.8088535486335191 17.2311293416602496
  7.5598460195745503  6.4090388605177600 23.5335632718101699
 15.0560082153514010  6.4412714525689996 23.4306953513375404
 10.1449720883454990  3.3344899335283400 13.9088757861044492
  2.6472473063069497  3.3020069295692998 14.0126707431636390
  6.4226421836609990  4.2016681240974600 20.1932491147418283
 13.8035017796080481  3.9345645575031396 20.2127598742806569
  9.6460514869011984  7.9198684137189588 18.7659204594072406
  2.2558090306531002  8.0593499899674388 18.8631167424591801
 12.9274866225463008  8.9969762605046597 24.5216626955758912
  4.7768938616245498  0.7467057037823199 12.9218141933198911
  8.0581064945678502  1.8223719769587199 18.6784234800526292
 15.4500317940432002  1.6837344934562599 18.5808083075050341
  4.4286338590362497  6.8023955315074600 22.6757843073259764
 11.9305507303050504  6.6081583223674993 22.5422350396523612
  8.2257081765177009  6.3843834209996198 16.1148945291103693
 15.8407508045193008  6.0609644573815000 16.6972916357341497
  9.4782385588346489  3.3588943765194399 21.3284872952820308
  1.8642667861616500  3.6840777210038795 20.7449942688257707
 13.2762896434649011  2.9404199296293001 14.7689805811519292
  5.7736380797704996  3.1354952878863398 14.9008316899459690
