 K Bi  O 
 1.0000000000000000
     9.6136110000000006    0.0000000000000000   -2.6017800000000002
    -7.2952510000000004   17.1803859999999986    0.2190930000000000
     0.0000000000000000    0.0000000000000000   34.9464060000000032
 K   Bi  O  
  32  16  36
Cartesian
  6.5850616852727510  0.2109995362281200 12.0267295794432592
  2.9741272603584599  8.7090166728686391 14.9309304281544630
 -0.5356954945791799  8.4964813819359790 15.0489447643196108
 -4.0447327332552403 16.9382976962855771 12.1266652832794524
  2.1161334170771102  3.2963482616427000 11.9397376111279510
 -1.5957026021263796 11.7914799524545195 14.7716265413743812
  3.8596493005708408  5.3300393447589398 14.8111643767598693
  0.3221417697334399 14.0823645064602374 12.0215590900755629
  8.1302289051112098  2.6062246977044796 14.9862275332866002
  4.4208410443029900 11.0561520440885381 11.6797934021124306
 -2.1789795389606503  5.6306201624528196 11.6401669672406101
 -5.7259163396863100 14.5845353347739000 14.6989469154424519
  4.4330774128600199  1.8798369468013196 14.7266093780893215
  0.6446904030535903 10.5633312972476592 12.1269507711372917
  1.7625961107371899  6.7208893478552794 11.9988842475512403
 -2.0339147536647504 15.1804526573351595 14.8319428732643424
  6.5001547309114001  0.0906638175876200 17.4057725542717492
  2.7168365367500300  8.8317786056200589 20.5457131149524734
 -0.6186365888252601  8.3808560097250986 20.4308584131175515
 -4.3062089445493896 17.0621103814447572 17.7406362255907197
  2.1043276991614004  3.2602703100619994 17.6446853187808799
 -1.6466682933526102 11.6866909369092777 20.6508902066495423
  3.8483608312166804  5.2943570574678196 20.5155343346099741
  0.2639647378127004 13.9741481757118589 17.9006154012073502
  8.1413134225181807  2.9542817940707597 20.8159785236096440
  4.4003046006690614 11.1853177939175978 17.9731253855824811
 -2.1647868027182100  5.9838882416967598 17.4692824455618023
 -5.7484832720251697 14.7146571730838573 20.9862300097782359
  4.1990641893796603  1.8696702815819597 20.4575483674906806
  0.7078765375581000 10.5919821679605590 17.8437116136936034
  1.5308706301693102  6.7133365065619595 17.7288437417700031
 -1.9741387693326402 15.2060029837866395 20.5446269965347632
  0.2045700779377202  4.7135610516444597 14.5612762866493526
 -3.0585469464815600 13.3078247723032987 11.8545396194280315
  5.5559950778911000  3.8311025510246601 11.8582267744070720
  2.1060873991649007 12.4893638967489391 14.7737455766574328
  0.7463657253478800  0.9939794786152799 14.7123224487471020
 -3.0464469796703701  9.1397121131103596 12.2381842946160599
  5.2450984870876400  7.5507576561059198 11.8774421647056023
  1.5788416667515595 16.2431169139243998 14.8555910187437998
  0.4086789647673696  4.7609436972131602 20.5967263690172437
 -3.4336555845876697 13.2798346592359593 17.8993197243399038
  5.7610571722468009  3.8764762940583797 17.8952250225417302
  1.7351982178416510 12.4662641805564984 20.8157675769802530
  0.7159237149234501  1.0389317867804200 20.5777154523658510
 -2.9058757755696805  9.5266803785125980 17.8187132561086230
  5.2188876535366706  7.5968828692232799 17.7426346996948219
  1.7175348075969596 16.6254426954217180 20.4337718136998419
 -0.0014074247704499  4.7762727248178001 12.4829324669006407
 -3.6949622464790703 13.2506034350839776 13.8554118551272509
  6.0730644972556913  3.8905650695976797 13.8721736769503412
  2.3853851827131001 12.4685132648877595 12.7175607144918619
  1.3108201588072506  6.4740467159230795 14.8324178760859215
 -2.1446963465256310 15.2254400134877397 12.0103701698022327
  4.4765237232645001  2.0343738316558797 11.8913927209483798
  0.9723169534908900 10.7352212309815194 14.9490401925726601
 -4.7567300125356606 17.1354996645170985 14.7427871034546900
  7.0627804655460604  0.0751480391871600 14.7514079693844007
  3.4972606045463301  8.5999114289486194 12.2892248543810716
  0.6152565073529501  1.0960524469377799 16.8077689085904325
 -2.9398059975275901  9.4013518678966381 14.4440277768235230
  1.7491569356014800 16.2745587383429999 12.7024426071796199
  3.9648085553038408  5.2367673727726594 11.9076362404763092
  0.6128268185973003 14.0569710369329375 14.8718284804695298
  1.7823883260978801  3.2613566258687796 14.6865568110339311
 -1.3682644513537299 12.1075954469734590 12.0586002225532507
 -0.1076032990451101  4.7022982777982998 18.5831759417814304
 -3.7112623531425202 13.3017573471835391 19.9554242139592546
  5.9647709047966506  3.8110320804917395 19.9740346748422510
  2.3649350425983302 12.5192993449230592 18.8125220741916337
  1.4893880433588298  6.5581345689653396 20.5638069204167735
 -2.3013490484434103 15.0343602758073178 17.7224059496891435
  4.6551727438199304  2.1169862331484599 17.6217146825384674
  0.8170430757247598 10.5514989936056001 20.6641946673654040
 -1.0927914698463002  8.5181711038493990 17.7057296090182206
  2.4624810710421503 -0.0098008948014200 20.1577855567488911
  3.4265688656780600  8.6350248736592796 17.9321364416172031
 -3.0766826227726702  9.4978771177758787 19.9710090816870007
  5.3524729206992898  7.4952777228115597 15.6471088093599011
  1.6085195818809694 16.3651952391168791 18.2280407338191033
  4.1835018744335395  5.3296675612059001 17.7685979638802110
  0.0424790114413200 13.6616230382591990 20.6138736329400025
  1.9982136669040202  3.3541738330376396 20.5461246288108015
 -1.9389161273518001 11.7153950668187790 17.8029026030892901
