Ta  O 
 1.0000000000000000
    11.6026439999999997    0.0000000000000000    0.0000000000000000
     0.0000000000000000   13.1199860000000008    1.3884179999999999
     0.0000000000000000    0.0000000000000000   23.1766679999999994
 Ta  O  
  18  49
Cartesian
 -0.0100340825576400  7.8673866161138610 10.9486209670007391
  3.8776507315346400  7.8724939642639402 11.1108001683253796
  7.7247743265730797  7.8755729625784205 11.2278128773411794
  0.0055599870048000 11.9329555290497211 11.8810736159449188
  3.8622633050618402 11.8164970229196005 11.5492875735629994
  7.7291018807322001 11.8230622639140002 11.8121688582135587
 -0.0052631913712800  1.4096204798302001 12.3163661347138795
  3.8715542382712798  1.4369103131099201 12.3784848281963988
  7.7512968104926800  1.3958494801248800 12.3409955538468008
 -0.0060135343587600  7.8501400009172801 14.7586462121795989
  3.8809291746232799  7.8524399344630806 14.8278042653195996
  7.7400300630364791  7.8599921920042606 15.1139186929535398
  0.0043050450297600  5.1477157230048007 13.0072672706997601
  3.8670661035192002  5.2247387000155596 12.9285596973520818
  7.7351842187698798  5.1480728490237206 12.8376627467116791
  0.0060758405570400 11.8067623869071809 15.7320501841494593
  3.8795535651506401 11.8042467607915409 15.4438150278155391
  7.7201599550542799 11.7940230117010412 15.5260648128830390
  1.9396679497746001  1.4230897198575201 12.1123954770181204
  5.7981239632342794  1.4228254833394802 12.1117143957753584
  9.6615882579765593  1.4074592245364201 12.1516755527220592
  1.9446102120128401  7.9838480086409005 10.8718364959298999
  5.8001912063157599  7.9888063137500200 10.8123521780748586
  9.6599465998769993  7.9834689722453600 10.8737564353466407
  1.9262780344928401 11.6735370634685012 11.7801806065087789
  5.8095922486167604 11.6739574278199409 11.7801235776156599
  9.6676739607809985 11.6729944208475409 11.7765409957342193
 -0.0628312179210000  0.6817012213741400 10.3381351031047792
  3.8789629905710399  0.7505357527225800 10.4440649550868194
  7.7613036268369200  0.6147118848567400 10.3019905498003794
 -0.0268777568788800  5.8084858435139806 11.2378446929543383
  3.9171608670685196  5.8945271053015604 11.0951221772163588
  7.7199832467861595  5.8734508973914403 11.0495108664438000
 -0.0056349400850400  9.8971910645616799 11.2062147105327590
  3.9170849857767598  9.8218521689538800 11.2983997368466795
  7.7345980531949996  9.8665227036870995 11.2861208688888599
  1.9412655178269600  7.9828209761368214 14.9982834863659811
  5.7729017876277595  7.9924098491047815 14.8179514597127397
  9.6956034973384799  7.9908578859608399 14.8181031217323600
  1.9418649104160002  5.1140262229540001 13.1467679542564788
  5.8056618529617596  5.1366490148138002 13.1739387885726007
  9.6601367672121601  5.1368740225737000 13.1745227800068605
  1.9709644575944398 11.6999881360432418 15.8616443500297173
  5.8161942690792001 11.7528842459991605 15.9241780970241606
  9.6341854814566794 11.7108642108376610 15.8666284960197004
 -0.0142992144920400  0.6856033676102601 14.1053825981890189
  3.9175510639862399  0.7022387226591000 14.1482466178392592
  7.7342619245983206  0.7212367247868200 14.1372035119206600
  0.0350163154862400  7.4763506813782596 12.9647129652759006
  3.8330321839004400  7.4781021995092605 12.9655238573482201
  7.6716037020993602  7.3959443223778205 12.9791838881148589
  0.0503494415851200  5.8962283738861805 14.9532764626576196
  3.8832951857877598  5.8850946225667204 14.9145965343012019
  7.7311970861857207  5.7968511711290409 14.7642200648295585
 -0.0486773845582800 12.1791570519343999 13.6924928286242409
  3.9206440968237599 12.1724985278395419 13.6782905646952209
  7.7980881852687594 12.1635104190305210 13.6822927186609213
 -0.0628213556736000  3.2818288372447602 12.6140482438198784
  3.8682550264498796  3.3420235954124804 12.6000669012014406
  7.7192014606334407  3.2732874639590404 12.5775113877169193
  0.0034740636664800  9.7837054160593002 15.1463190655254607
  3.8177741269082399  9.8220459511470999 15.1665658055782178
  7.7611807548369596  9.9046740485767817 15.1489086577132195
  7.7003748944525992  7.3367506191419007 16.8180411311290179
  3.8525564170650002 12.4374625491032411  9.8123100652737598
 -0.0273615871336800 12.2253912265991005 17.5836974419447820
  0.0070088091610800  7.3247976558966004  9.1537592840301585
