Rb Lu  O 
 1.0000000000000000
     9.7538689999999999    0.0000000000000000   -0.6318030000000000
    -0.0879030000000000   10.7184980000000003    0.1971810000000000
     0.0000000000000000    0.0000000000000000   39.0510749999999973
 Rb  Lu  O  
  24   8  24
Cartesian
  5.5487552717676794  2.8701434438804401 14.2270806624636901
  0.6279396312098601  8.2294715463956809 14.6415749852841284
  3.9659908239055195  6.4324911328901999 20.8608566418027586
  8.8868464085021692  1.0732519939083600 20.4463355472566093
  3.5547005305925601 10.5780857833849815 15.3729275456502297
  8.4754581135531613  5.2187960530925803 14.9584396215652777
  6.8067245163274093  8.5557051107726796 21.0654136518757760
  1.9737281575476000  3.1962772190410598 21.2827301314804451
  5.8544768112336305  3.3134145388040199 21.3889608508389877
  0.9335707109241002  8.6724622454115803 21.8032513962179948
  7.4898442833259091 10.5199121001547997 14.8972360411458276
  2.6569436894544802  5.1606648151144805 15.1145690697119388
  2.1761771368024898  0.1983814980883400 23.7191491882117198
  7.0089723792910608  5.5579153957651801 23.5020499142112271
  3.8117477599810403  7.4052028652636999 17.2275611027800188
  8.7325723951950600  2.0458721903089399 16.8131305856511268
  6.1112105571565394  0.1406260506501200 23.2435511854423140
  1.1902862274585000  5.4997438562346010 23.6579644412594980
  2.8591794409862796  2.1628533415560400 17.5511412935679871
  7.6922665676448698  7.5220483203261210 17.3338093063443601
  4.1172801476506393  7.8483579860389199 24.3893616540248672
  9.0382472374295890  2.4891165961724999 23.9747466031759195
  5.7001097535531002  4.2858554147330601 17.7555849352826982
  0.7791690313408800  9.6452356091485800 18.1700961010601389
  3.6738926741745903 10.4858806546348404 20.4608039359472684
  8.5943903483644810  5.1258972231518802 20.0457007137434395
  5.5396723079125501  7.0608015539616797 13.9592160866713488
  0.7068975089296400  1.7016055033418001 14.1765594552155676
  4.1258377467892293  3.6577857311266602 24.6571243341363910
  8.9592752378983196  9.0169086815901807 24.4397464967988576
  5.9924141587430002  0.2331604516588200 18.1562919664262985
  1.0710633509706997  5.5917477987772806 18.5701340897725480
  3.8470600556997399  8.0311216678764392 14.4816739331729689
  8.7678962547435599  2.6718676301823803 14.0670550289314811
  1.8869027399102101  0.6405438715788000 20.3099952013249769
  6.7199816118920497  6.0000198893664400 20.0929062001229966
  5.5412721819250992  0.9447658212780201 20.1151759574495976
  0.6204864135637299  6.3041384055599599 20.5297937129111361
  7.3254114520785008  7.9266043076586801 14.3344373888051990
  2.4926811278992997  2.5674799637904204 14.5516249058141991
  5.7898059531054997  1.5783859718887399 16.6128616376030998
  0.8690083946335800  6.9378403383104201 17.0273957054460894
  8.9544448325051587 10.6582731178075605 23.2622970161277287
  4.1211725169617202  5.2990141496044201 23.4797816111121556
  3.8760952165598002  9.1399771894064195 22.0036138499179508
  8.7971175297033799  3.7808170457548402 21.5890825858347881
  0.7117000231952401  0.0603593993423400 15.3540069988799690
  5.5445981208525597  5.4195185783291002 15.1365620434387793
  2.3401607651267904  2.7918127676814199 24.2816472092878151
  7.1732114022423099  8.1511516958796406 24.0648477373551302
  4.1247242075446700  9.7735708653270805 18.5013393600524090
  9.0456263016683902  4.4145478112649199 18.0868749562876197
  5.8186864054357494  2.6875046325446199 24.1349537363245474
  0.8981722581841500  8.0467136525470799 24.5493205742004008
  7.7790546606562998 10.0777182142802211 18.3064806957994506
  2.9461172690050303  4.7185454228010002 18.5236627965056364
