Zr  O 
 1.0000000000000000
    11.3354119999999998    0.0000000000000000    0.0000000000000000
    -2.8338530000000000   14.7251320000000003  -10.4693380000000005
     0.0000000000000000    0.0000000000000000   36.6426829999999981
 Zr  O  
  70  24
Cartesian
  4.6666574029125600  1.7968000699937599 12.4573659321823786
 10.3343654716252491  1.7968058127952400 12.4573688112503280
 -1.9846206243541700 13.3110706532279615  4.6573737369395491
  3.6830874443585202 13.3110728619977596  4.6573707008315299
  1.9140552758791196  9.8563377848336007  7.2539325161855182
  7.5817620693579588  9.8563377848336007  7.2539354476001581
  3.7740419684291497  6.7872687871327608  9.8055775213313492
  9.4417501504959596  6.7872709959025599  9.8055836458940782
  7.5694608519170297  3.3004394012666798 12.4504655915065783
  1.9017528115428699  3.3004429352983600 12.4504682088410785
  3.6039634914225798  0.0323425744274400 15.0655768752355890
  9.2716741389414992  0.0323413964168800 15.0655799113436100
 -0.9517810708338899 11.5330139092543611  7.1072112874517686
  4.7159295483464998 11.5330105224739992  7.1072056340092473
  0.9297547216831503  8.3325247282180399  9.7931560705678677
  6.5974624786720106  8.3325285567523597  9.7931577456619507
  4.8134000072970906  4.9305442034597196 12.2895680939204794
 -0.8543044624222900  4.9305450869676406 12.2895736950163084
  6.6138295383661596  1.6568424023760002 14.8443381964593097
  0.9461230566111501  1.6568413716167600 14.8443392957397986
  1.8496962921823106 12.9593626424238000  6.9612678258380392
  7.5174054660976708 12.9593649984449204  6.9612643186098087
  3.7392906841369200  9.8084616686593602  9.6846061528754994
  9.4069942186848099  9.8084615214080415  9.6846110211176715
  1.9152716506023097  6.6356788542402798 12.3535677329280666
  7.5829794075911705  6.6356803267534801 12.3535681517015892
  3.8411235480571797  3.2633728572423202 14.9390592179341670
  9.5088306815983810  3.2633781582898398 14.9390576475334687
  1.9688756237320499 -0.0245781595751600 17.5803243736944985
  7.6365837207832694 -0.0245813991042000 17.5803233791073872
  0.9887657713524796 11.5142998862468797  9.6744303227663302
  6.6564713746130604 11.5142972357231201  9.6744358715154704
  4.7327064965385706  8.2154136919035601 12.3689731020616165
 -0.9350033575015100  8.2154154589194004 12.3689758764361883
  6.5607140364780303  4.9080462632822002 14.9397025587542718
  0.8930100201751301  4.9080453797742800 14.9397046526218684
  4.7326744739996700  1.6014253988532399 17.5128223746990770
 10.4003828827747213  1.6014240735913601 17.5128222176590107
 -1.8449861734495401 13.0270129911095189  9.7380425962679222
  3.8227197698734003 13.0270150526280002  9.7380436955484075
  1.9697559601665005  9.8418785887175204 12.3008964934500700
  7.6374631787232898  9.8418787359688409 12.3008974880371813
  3.8418832473694202  6.5539886811978398 14.9423219347751797
  9.5095923929462494  6.5539935404914003 14.9423206784546174
  7.5831877808022590  3.1808720656832801 17.5267774787861796
  1.9154835094525899  3.1808707404213998 17.5267820852949008
  3.7387518553274997  0.0075413291024800 20.1953173539041089
  9.4064563533854102  0.0075397093379600 20.1953232690800810
 -0.9838985721479196 11.5833136349044796 12.4508802819847570
  4.6838154193175399 11.5833103953754399 12.4508829516659496
  0.9454971718375700  8.1599547217546000 15.0378180013421812
  6.6132061473832202  8.1599563415191216 15.0378157504345076
  4.8128729956546792  4.8863100541830402 17.5901642427472495
 -0.8548311340023400  4.8863103486856803 17.5901673312019611
  6.5981187140112212  1.4833129063114401 20.0891125155770496
  0.9304155762027499  1.4833121700548402 20.0891152376049256
  1.8828749014136599 13.0093970211952801 12.3046439929871685
  7.5505793427945083 13.0093986409598017 12.3046443070673064
  3.6039276431821303  9.7842899227273996 14.8154922912013571
  9.2716301008658792  9.7842883029628798 14.8154905114138984
  1.9010800831791996  6.5166666561332800 17.4304013596668952
  7.5687856581012500  6.5166629748502798 17.4303992134526098
  3.7732435303464000  3.0300528461996801 20.0763094574434646
  9.4409485668363811  3.0300554967234401 20.0763105043772718
 -0.9194460429635800 14.6853679590445605 12.1588993964487511
  4.7482572365375404 14.6853661920287202 12.1588991870619889
  0.8481983026861299 11.2292076363541202 14.7533588116922658
  6.5159029424366901 11.2292099923752389 14.7533633658543017
  4.6665331667970396  8.0202222014051205 17.4253762344669703
 -1.0011746185303503  8.0202196981326814 17.4253780142544272
  5.7626261896202999  3.1720576016680799 11.4373545583162795
  0.0949210681147300  3.1720589269299602 11.4373547153563493
  8.5106141521835497  1.6228522329290800 13.6563064585521197
  2.8429099658494699  1.6228475208868400 13.6563050451914876
 -0.0706533679492303 13.0091374171181204  5.7400145228557982
  5.5970537089149097 13.0091341775890807  5.7400142611223472
  2.8741210026043902 11.4751482635313202  8.3920674415313972
  8.5418256423549508 11.4751482635313202  8.3920718386533597
  2.8628246977757907  8.2493177193282801 11.0719384382068000
  8.5305352886176493  8.2493191918414812 11.0719366584193395
  5.6856310837350197  6.5929325323008801 13.6361119954438497
  0.0179251970891399  6.5929354773272797 13.6361124665640556
  5.6854844601808008  3.2238397063566402 16.2445588126822003
  0.0177776100249001  3.2238394118540001 16.2445575563616380
  8.5301617584537208  1.5681058119175999 18.8093854472236863
  2.8624562118701995  1.5681040449017600 18.8093867035442486
  0.0407765942023000 13.0677285700947987 11.0196808422731785
  5.7084846345764593 13.0677256250684000 11.0196825697139502
  2.7635319863306096 11.5329965335985989 13.6715257875494114
  8.4312407635065512 11.5329950610854013 13.6715293994710176
  2.8432096174656900  8.1934803132869209 16.2250661093000694
  8.5109185079957506  8.1934806077895601 16.2250662663401357
  5.7623055958304104  6.6440047383757195 18.4444970340960985
  0.0945967903159399  6.6440093031666398 18.4444974528696193
