Rb Ta  O 
 1.0000000000000000
    10.9655009999999997    0.0000000000000000    0.0000000000000000
     6.2566490000000003    5.4278570000000004    0.0000000000000000
     0.0000000000000000    0.0000000000000000   35.9287199999999984
 Rb  Ta  O  
  12   4  28
Cartesian
  3.0977658048304400  2.8074098214610701 16.1871483802103988
  1.5768445932050201  1.3371582711998500 12.7418288067936007
 10.3824894430294599  4.3755428397389799 16.1831096327951975
  8.8007056254321103  2.7400945702399002 12.6184197614759999
  7.3289911890821804  1.4664198631692100 16.1271362799071980
  4.7217815835544998  3.5247016125182000 12.5829538033896000
  3.0754142195365501  2.5298906578223099 23.3103307779359987
  1.2330558715327600  1.1947151285059900 19.7455816242287980
 10.1925409171928703  4.0560740490471607 23.1865455589199989
  8.5225902720075499  2.7570056557876699 19.7419111461936012
  7.5834939648038500  1.2509238987337601 23.3460881179415978
  4.5441346122083095  3.8073794657283302 19.8013742556552010
 -0.0045874758760200 -0.0044576275612500 16.1100852279695985
  5.7807016551040906 -0.1758409639291400 12.9060636566472002
  0.1320011127266700 -0.3199821031283100 23.0220513037080003
  5.4878424438935909  0.0042984285154400 19.8189721427111998
 13.0531604171367110  3.8884826678580402 11.6951217184799994
  4.2522783785066594  0.9927878838348499 13.9933231319376006
  7.4845193417114499  4.4944119310247199 17.4821545409975982
  1.7790819736185199  0.3866554017020901 16.9882736851439979
 15.5454551071602793  5.0326702012224498 17.1816564276719994
  5.8569675488624897  3.6960533044797801 15.1328639248487988
  9.9570699807835794  1.0711005704022900 14.6387164778927996
  7.1293355270833008  4.2998760163447605 14.5764911684375988
  9.8968159938106588  0.9194045598805300 17.6207635905984006
 12.8984091992492100  4.7173044361940697 14.4478997645472003
  6.4817456199677999  1.3805450862293702 12.1915977057792002
 10.0334250212293590  5.1854611190582505 13.2585538613975995
 11.5510955718089896  3.7147054837174402 11.6527236731567996
 11.2087086555849105  1.7610427470006700 15.1407466860167990
  4.7233764278660804  1.1880652437810102 18.3076869440015990
 12.4900052609443186  4.0807757377470306 18.4465830640751989
  4.5645198794848501  1.1499918665259301 21.2899851984599984
  7.5950999447995802  3.9099519591572705 24.2337481042824017
  1.7228382236544499 -0.0555288768599500 24.2758791992159999
  4.7484527684389803  4.6336358660104509 23.7373619387831987
  6.1105301904598797  1.6042131236068802 18.7471609391591976
 10.1563529413589002  1.3583978555908400 21.9354072873912003
  6.7967470742078202  4.1803930344323206 21.4803718450272001
 12.7327901508989285  4.4051326393387704 21.3522773353343993
  7.2534783789893300  0.1514625041136200 20.7961930865447968
  3.7045721021167597  0.0082220092264600 20.7879894819071964
 11.1053097074078497  3.7214762468178106 18.9406712286432004
 11.4461592841699087  1.6548420568386502 22.6700367952103967
