Ba Ag  O 
 1.0000000000000000
     8.6689600000000002    0.0000000000000000    0.0000000000000000
     0.0000000000000000   14.1491159999999994   -4.9717779999999996
     0.0000000000000000    0.0000000000000000   34.3336159999999992
 Ba  Ag  O  
  20  20  40
Cartesian
  2.1627703709135999 11.4016389572260799 12.3319363475448824
  6.4969590938576003 11.3243404971329991 12.2431387757393022
  2.1675830307471999  5.7223166550253195 13.1043442244072192
  6.5057296540687997  5.3741891166292799 12.8163902638079179
  2.1697139478048002  8.4546432488599201  9.8354161046755610
  6.5042451813584004  8.5430723940367201  9.7329374619828393
  2.1699936084544000 13.9921957949666389  8.9616296440151579
  6.5039644804336003 14.0487506605655987  8.8893705744135207
  2.1634084930592001 11.2614110303025594 17.9229624687959230
  6.5022156044432009 11.3548318421129988 17.8231722591168200
  2.1752780330912000  5.7623621905843194 18.7697718820417592
  6.4989266010192006  5.8199925304904401 18.6991688310061797
  2.1643194273760002  8.4843602127212403 15.4102362116346967
  6.5005203026256000  8.4073228038183583 15.3246075740365395
  2.1649432457376001  0.2876871840523200 19.8144201109408797
  6.4974716027727997 14.0816470722832801 14.5558350068385991
  2.1674323642224000  2.8253598613577999 16.3172612799944226
  6.5031950235440004  2.8373672256688800 16.3206610527568401
  2.1706174268159999  3.1381883266481996 10.7042686850290600
  6.4998862548912006  2.5181002051426797 21.9284086668265417
  0.0105731837536000 11.2828633540171186  9.3736156336474394
  4.3287009245056005 11.2833514985191208  9.3759082309267576
  8.6146819943375998  5.6501867255158800 10.1050126578441795
  4.3955383460368003  5.6497018353105597 10.1074857963013596
  8.6553707116832008  8.4327450865001996 12.5376534736797005
  4.3475965699280001  8.4346513968988788 12.5368720417777588
  0.0051943541424000 -0.0093933151300800 16.7404402832104786
  4.3259771372736004 -0.0089814343633200 16.7392500961456996
  0.0000775871920000  2.7217765884715197 13.4599193508744808
  4.3388791504416000  2.7237610019905198 13.4611152145962194
  0.0100517458096000 11.3725083327317993 15.1198896486961427
  4.3174813830943997 11.3744488839911995 15.1191634789788001
 -0.0063987327552000  5.6696322801081598 15.8951787605412793
  4.3423331241743997  5.6703241718805595 15.8911925897807578
  8.6602650331200000  8.5232651880394794 18.2795047570453377
  4.3424027359232005  8.5284173056485599 18.2844038587609212
  0.0541182367296000  0.0066690443354400 22.5246455555493164
  4.2717414361359998  0.0087062340571200 22.5253020335843956
  0.0011680556704000  2.9373578965116001 19.1728044661698824
  4.3323762167871998  2.9376492268100400 19.1736280748843768
  2.1683808351360003 11.2012696467799184  9.6183962417265985
  6.5058087149840009 11.2842819443872795  9.5927946251102814
  2.1704016564015998  5.6829239596785595 10.1612193167181601
  6.5052389042431997  6.0257639734253994 10.1457813509848584
  2.1685360095200004  8.4642813436967987 12.5045467682842393
  6.5002976837328008  8.5551846032973611 12.5224482687306011
  2.1663839401999998 14.1047252709173989 11.8205482028689417
  6.4989235668832004 -0.0044875336305600 16.7480720353661603
  2.1690256323808002  2.5818350396558398 13.2415801926669605
  6.5046130053312003  2.7776116885395599 13.6109999856136206
  0.0017037973984000  9.5965250170543204 10.6650924700882808
  4.3384206491472002  9.5975174360505608 10.6641899483532789
  0.1643275054160000  4.1717720535227993 11.9701380790295584
  4.1748456094591999  4.1734139169434403 11.9721138582600393
  0.0238210884256000  7.1670683161958397 14.3107133986203205
  4.3096546992480000  7.1733781144760389 14.3098829689714613
  0.0048409206432000 12.8357685940330803  8.1568432256094994
  4.3358516895408004 12.8408580310582785  8.1578389899843380
  0.0216211664464000  1.4804524276793998 15.1804411310683403
  4.3144495010239998  1.4841729377316000 15.1862961376770009
  2.1628829807040000 11.2536366570251989 15.1333683962124379
  6.4995729586767998 11.3433704921883596 15.1536982573866581
  2.1671147335279999  5.6677447880337599 15.8827636347197600
  6.5031763852799997  5.7050622325367994 15.8435288234901570
  2.1644188603472001  8.5229472574029597 18.0634640433266007
  6.4996235854032003  8.6074808679626393 18.0397209141749215
  2.1630910357440003 13.7814700390642795 17.5132030895025395
  6.4966865417552002 14.1220292153119189 17.4988223598220394
  2.1658057205680001  2.8854074362413598 19.0222784222514036
  6.5029681568608009  3.0785331067513200 19.3941434966535802
  0.0004245189712000 10.2116766534785981 16.9916296113418603
  4.3362002684224006 10.2109677827669998 16.9900095753646205
 -0.0201848064640000  4.1747229931557595 17.4483449186388420
  4.3569618207952008  4.1839668936208803 17.4568992804720402
  8.6660439352351997  6.9716306801314802 19.4944037446201399
  4.3397104170159997  6.9803229065637602 19.5096499362417184
 -0.0308926191664000 12.6346565964880799 13.3507022874280423
  4.3560462919295997 12.6361306513929588 13.3446734388918387
  8.5035729742928012  1.4851612534842000 20.6589363411051394
  4.4959268966975996  1.4839854619446000 20.6590150864370976
