Sr Bi  O 
 1.0000000000000000
    17.7561280000000004    0.0000000000000000    0.0000000000000000
     0.0000000000000000   10.7082210000000000    3.5694070000000000
     0.0000000000000000    0.0000000000000000   49.9716999999999985
 Sr  Bi  O  
  96  48  24
Cartesian
 11.7641313729014403  6.8692282541686795 13.6867448950105590
 11.7736193598982410  3.5925672400957795 17.2722114868102601
 11.8882019621788793  0.0603392191018500 13.8610726533659516
 14.7489277891987207  7.1513195245067109 17.0875591188775680
 14.5801002158780797  3.6325182205780497 14.0413017525283497
 14.7241970541203191  0.0047094755958000 17.2635460135666001
  8.9330898855494389  5.3083407793085406 15.2149909387251796
  8.9588114125702401  2.1157096383134699 12.0711582911934912
  8.9375715322566407  8.9075720665792488 19.0572356985637512
  8.9682780922134402  8.8853473680581700 15.4905676476563894
  8.9161587072563204  5.3733529589725793 18.9427773158728598
  8.9332921278473609  1.7822078777078101 15.5280543701142690
  2.8265639245542404  7.1528649349614302 17.0635346529768093
  2.9105145426156800  3.5971502516015703 13.9279059713601896
  2.8416505962707204 10.6913607989532906 20.8682350686164284
  5.6986801301248002  6.6940384390601695 13.8143614469033906
  5.7963707951551999  3.5437916146874100 17.2729942941414727
  5.5409735748931199  0.0047905368287700 13.9887136541015913
 17.7355960565097597  8.7894286926150897 15.1906010261950293
  0.0248461499104000  5.3726211591494391 18.8902989640224810
  0.0387412078768000  1.7803170200436300 15.5905408399112098
  0.0108564517817600  5.3963582868045599 15.0621187978975204
  0.0052158626000000  2.0569528801110000 12.0568302276829993
  0.0198929004435200  8.9615691276294296 18.9039692100888104
 11.8296893057740817  7.1381275316457593 20.8031465841349217
 11.7835169807679989  3.5759015003424297 24.3845862102998083
 11.7941956937084793  0.0048617464984200 20.8372924132971384
 14.6939312012604812  7.1384490995223899 24.3743433920351258
 14.7131641064262411  3.5864237195436597 20.8213965105222165
 14.6881927758134410 -0.0010344141486000 24.3966896536177984
  8.9162107327113596  5.3579913734548201 22.5632835204869373
  8.9230109746128008  1.7974890444858600 19.0661837617146190
  8.9161789492422407  8.9286295690113313 26.1824891637681105
  8.9164575428905604  8.9208756391030199 22.6211524148703376
  8.9142664366953603  5.3609599064804403 26.1497799852704809
  8.9166853540128006  1.7894518821321002 22.6185324223906967
  2.8908039976067204  7.1365527806654994 24.3705975491225004
  2.8833577877686403  3.5907660102413699 20.8107228052027864
  2.9032419877094404 -0.0015998082174000 24.3998972656601971
  5.8013971998694398  7.1343717302122203 20.8212242036007389
  5.8102198647500805  3.5752612558088397 24.3886223888232792
  5.7949137272915205 10.7080317857349296 24.4170069688413101
  0.0232511169321600  8.8999890398781005 22.5750173994986980
  0.0398736937206400  5.3458831596412804 26.1564397853187600
  0.0366992531568000  1.7928433898872200 22.6324921595167403
  0.0335464750691200  5.3652520827038694 22.5510765405962879
  0.0269321398278400  1.7775583681496099 19.0995185623698696
  0.0388979944870400  8.9215652485354191 26.1657780205831401
 11.7813111369865613  7.1404241238036308 27.9513648655712039
 11.7613994150473591  3.5480418146845203 31.5405937951818380
 11.7688431390275206  0.0022700357697900 27.9806825719209300
 14.6729800355881608  7.1390119236181491 31.5036871125460465
 14.6882822666985593  3.5635660580792696 27.9626527350500886
 14.6794489481411201  0.0044432692217400 31.5300937888525787
  8.9147597019311995  5.3459924905776903 29.7187368476162312
  8.9179401795785616  1.7929506862616400 26.1948100314578802
  8.9013170701062414  8.9470441754183998 33.3456751827378000
  8.9169680315705602  8.9255011622461797 29.7548856494550584
  8.9049883271315196  5.3612797610417102 33.2517456748115663
  8.9116150916623997  1.7735999671747500 29.8001958348332465
  2.9161300956569600  7.1339681373627295 31.5139765711959079
  2.9054503173487998  3.5629403767262398 27.9666692818340827
  2.9516118111168002  0.0006891811035600 31.5481544893285175
  5.8101275328844801  7.1398534827065401 27.9545907172841837
  5.8350949571491197  3.5523908515614600 31.5299218388718216
  5.8158755466406404  0.0003723248441700 27.9769527556463871
  0.0381080243523200  8.9184283822756800 29.7381541963435581
  0.0449446663161600  5.3413426597728595 33.2851018205216178
  0.0381564985817600  1.7808463274076598 29.7879590860872199
  0.0386142515616000  5.3493943853071801 29.7327055439540544
  0.0361940913152000  1.7778984612485700 26.2014400269561882
  0.0383928326454400  8.9261797422109499 33.2994775956586508
 11.7196735796150406  7.1556654559995598 35.0525046654885202
 11.7885330869280018  3.5416825234792504 38.4234439315927574
 11.7045730581187204 10.6941287669995795 38.8572806811718579
 14.4190217719392013  7.1340021895055097 38.3625794238901747
 14.6744470468835200  3.5950239201576002 35.0783418665942008
 14.5766569475363212  0.4447570714115700 38.5369840299851916
  8.9167924234646403  5.3584743142219198 36.7607632675486471
  8.9029009167238407  1.7662051909987799 33.4609788369062642
  8.8575144779430399  9.0576151238201987 40.7301710467383984
  8.8979387891929616  8.8854328196617498 37.0167124497622524
  8.8832354722799991  5.0817790235280000 40.2945140356079960
  8.8889284420393597  1.7424808061266499 37.2892541991195472
  3.0100715542601599  7.0784509372593893 38.4902680405171296
  2.8955152310489600  3.5462576109015003 35.0790748093074995
  2.8860309728390403  0.2695146789379500 38.6646330277896482
  5.8461263067916800  7.1341140904149594 35.0877648400723245
  5.7020660461731199  3.5063355426159299 38.3100156688193110
  5.8708859843587202 10.6956865989906600 38.8332183795552197
  0.0594840941676800  8.9394620053749296 36.8634036995063070
  0.0807328525452800  5.0230441100963699 40.2801697669887844
  0.0550178952918400  1.8304546240809898 37.1363100276563287
  0.0552036243907200  5.3566215778244999 36.8232414563204955
  0.0380503169363200  1.7654819577524401 33.4085028408644789
  0.0902213722259200  8.9616844551695998 40.4301529544261982
 15.1443611987907207  6.9812714758757703 13.7158622965895880
 15.2969452886556798  3.5270512386336899 17.3636966420482288
 15.3625490323385598  0.1633642983293700 13.5901047495367902
 11.3645895504128003  7.2158514404589003 17.2541760808373006
 11.3686610305631994  3.4847924223614997 13.6649890466855002
 11.3505757039500796 10.6988528057759389 20.8445477331409776
  6.4416505042739196  7.2535056146188799 17.1590184700439572
  6.3807072115072003  3.3575133296511899 13.7212457961747312
  6.4302672281744000 10.6861952602250998 20.8662068958526987
  2.5711047354054402  7.0583220517524303 13.6297011618098107
  2.4799513440208001  3.5466055210017902 17.3359986134639321
  2.3354327977385601  0.0610820483926200 13.4855440729035383
 15.3138862328192005  7.1582705520044403 20.7782982988174822
 15.3050292986115206  3.5722501040636403 24.3989207709638798
 15.3014789608179207 10.6906996733887496 24.4202574853812493
 11.3532203016543995  7.1421177360369903 24.3695706663073324
 11.3520515933094401  3.5920499259392700 20.8044585670380897
 11.3531302780854411  0.0092251323915000 24.3894665297984972
  6.4242851886512007  7.1402946614117404 24.3782242299265768
  6.4296315587919999  3.5896094152911600 20.7914699585007199
  6.4273245050809606  0.0112352796376200 24.3883370979635394
  2.4676614400256001  7.1549803440199797 20.7443301785626595
  2.4759881762511999  3.5700338235632696 24.3935031605260910
  2.4721652818927997 10.6978237457378409 24.4169004221742796
 15.3053785616492792  7.1275997441696104 27.9629266038068671
 15.3076813538896008  3.5492219677209302 31.5598075211813089
 15.3023449271804814 10.7067530099831103 31.5424491845933659
 11.3502234223705596  7.1492259602189998 31.5038201442140036
 11.3540470269740794  3.5687832104326800 27.9577725344525589
 11.3456886848406402 10.6920446259463500 35.1764231192894457
  6.4234254369334405  7.1563513175546092 31.5004445200898680
  6.4269713356950398  3.5665687503298797 27.9523425381719619
  6.4358387460182405 10.6887676961559297 35.1424374375513082
  2.4750698293110402  7.1296094630868909 27.9618085226866313
  2.4739852850127999  3.5467725692493901 31.5468194480551283
  2.4751547036028798 10.7049297211934409 31.5511166689004803
 15.3083131169238396  7.1608328151253202 35.0544979651444351
 15.2587499041535999  3.7812752204769002 38.6300423917292974
 15.3196672729734402 10.5935312414727605 38.7616798232439166
 11.2134698084240014  7.0777351997677505 38.8658236413912519
 11.3580103723049604  3.5922038030750403 35.0153444719216793
 11.4490772913462386  0.0804576105522300 38.7217269825484109
  6.4844649679139206  6.9754641934630506 38.7612422265023469
  6.4188608691084799  3.6117569075388301 34.9876565447596093
  6.2663996516492801  0.1575403110918900 38.6355070953266306
  2.4725164981046404  7.1481807307671898 35.0761979261797308
  2.4906137213235202  3.6539422654149600 38.6862896822903224
  2.4865539602175999 10.6311959096893212 38.6665297082054451
  9.4647507950153589  7.2586513431382205 13.9773200454227400
  9.1456435221215990  3.5584672315679100 17.2384050254159682
  9.3564227888227194  0.1954784672727900 13.3781705575079304
  0.1591472874576000  7.1931729275318395 17.1034946294262795
  0.4280377445094400  3.3814578755470799 13.7968625082723584
  0.2507436942358400 10.6753870244409601 20.8564951102663159
  9.0739201289235201  7.1666473791283192 20.7750150152394397
  9.1215260837043211  3.5793636823561501 24.3750513243410474
  9.1318045735196804  0.0078147526035900 20.8205317979955282
  0.2546415194544000  7.1286507560607602 24.3864360795429214
  0.2235674076480000  3.5767035460953296 20.8220102702101109
  0.2467008014515200 10.7043832806758097 27.9748992043042719
  9.1247715487801599  7.1426629986503096 27.9458067275147641
  9.1016253705644790  3.5621065275569701 31.5293360633359860
  9.1326939779712006  0.0101621017290000 27.9649071843129988
  0.2537270788624000  7.1310094559004291 31.5307797695248091
  0.2434567568659200  3.5594401805279703 27.9762549604569912
  0.1958264761897600 10.6803849795104995 35.1457132610685008
  9.1287723595411201  7.1716630027625108 35.0642530476391698
  9.3061136411151999  3.7573535901739499 38.5544508082576485
  9.0371999235356810 10.6538301976636500 38.8172743738175470
  0.4783948337625600  6.9432330907463102 38.9731734202307720
  0.2675619435548800  3.5803548352919097 35.1129163222799718
  0.5867794820035200 10.5883783384453505 41.9433808535324530
