Tl Sb  O 
 1.0000000000000000
     9.3768480000000007    0.0000000000000000    0.0000000000000000
     4.6884240000000004   15.0437680000000000   -2.7068629999999998
     0.0000000000000000    0.0000000000000000   32.4823549999999983
 Tl  Sb  O  
  16  16  46
Cartesian
  7.7663917969372811 14.0265499286396800 11.8119028756399196
 11.8742794779211209 14.0532300511876791  9.9069075490814704
 10.6137241556018420  5.8600574692975202 11.8108919346465804
  6.3247591783209600  6.5005568738481605 14.9976845392335889
  1.6030419762333601  1.9535230860949597 11.4053444486600899
  6.2610110991511210  1.2214072848620001 15.1042910350083979
  7.7228708916621613  8.7302041093280796 11.6354112471742681
  3.1536976593657604  8.5320113417512005  9.9348936188120494
  7.7765142918902406 13.0896210488460802 18.3701932161207679
 12.4928106912648005 13.8223873426073602 14.6706160389837894
 11.0307175090070420  6.3133618528676800 18.1402564552987684
  6.2227745634506402  6.5110112395444002 19.8411232689802510
  1.6100911623700800  1.0167884213462399 17.9635257837702120
  6.8799359525738408  0.9903253803704799 19.8688705392613656
  8.1390992818075212  9.1844517371518410 17.9640421538335602
  3.0522361319611200  8.5434975594945595 14.7782012551819388
  7.8313423162104012  3.7235489093838403 12.4071266589686591
  3.1409532570592802  3.7755225703832798 14.9602231144738180
  9.4284182729037607  3.6946147790763999 15.0567148738614485
  4.7596847629032002  3.8073788021870403 12.2983839628275575
 10.9058049067125609 11.1831551699304814 12.0148139643595186
  6.2066844548935212 11.5975694575308008  9.2755027968700006
  9.3509091535672813 11.5594175592567190  9.1846976698944793
  4.7011186581278404 11.1641072022019205 12.0882999059953278
  7.8481126213214409  3.8605326467860799 17.7603994723781682
  3.1703144185908005  3.4457072130063198 20.4996371485417797
  9.4028585324356797  3.4840999620060802 20.5910193516211706
  4.6758967654932002  3.8791933879263198 17.6871024156388295
 10.9225694919463194 11.3202845310069602 17.3680657725119900
  6.2355937461199211 11.2688041551602414 14.8153814368831593
  9.3251676897849602 11.3488600178852792 14.7188906249022686
  4.6171210881650406 11.2380020401802394 17.4771978779437092
  9.8254105282195212 12.5440386436769611 10.9411679369173900
  4.8216383946712806 12.2961439745063199 13.7906684279097771
  6.3355982051138406  4.8732946036271194 11.7015266659650798
  1.5528765426969602  4.7864747619339196 14.2178180695729282
  9.0230137190575199  2.4742089578501600 13.4749874700928896
  3.9149313716822398  3.2499055019153600 10.5517220924229385
 10.5892497852897609 10.0993156215444806 10.3960731057923699
  6.0294146746111199 10.0921895390805592 13.1885189344033886
  6.2726553627660007  2.4729678469901599 12.6882393333510901
  1.6354099647288001  2.6178990565891200 15.6690543980591777
  3.4348076858534400  2.6456560120505599 13.2823589021985384
  9.4999446819108009 10.1766924900640792 13.0820373891273700
  5.0165884093946405 10.0568008801127196 10.4790195875891801
 12.5160084506059235 12.3005955758952013 11.4512661853816997
  7.7903935741101611 12.8920143864704801  9.0925709907126695
  9.1550809970287208  3.9675012087124002 11.0614357174118503
  4.4924546750148000  4.9304937174413599 13.9330066896935882
 10.7333143652030412 12.3566363195734414 13.6732515084756088
  5.9359991391698408 12.4224336989880797 11.1167752632803207
  8.1203844528424796  4.8871252421756006 13.9858238112226996
  3.4157491954092003  4.6793915664954397 11.0495107913008095
 12.4636745272010412 10.0209100601690402 12.6523679441684109
  7.7835061386014406 10.3503064486072009  9.6501259996315980
  9.7302794984366408 12.5700571413083200 16.2999952336465803
  5.4623469318724807 11.7952260652161591 19.2231234004304881
  6.2900065636106399  5.0224914736424804 17.1231471183056669
  1.5933536762270402  4.6930556705321598 20.1253984285883902
  8.9283672378950403  2.4994317905919998 18.8347004794414481
  4.5550873781150409  2.7477388094435202 15.9846057508306814
 10.6327967113180808 10.1566612616590408 15.7899718175905601
  5.9602663280253605 10.3643276916962410 18.7267231056876575
  6.2374969180742399  2.7425733812630400 18.3239928619990096
  1.5864095107879201  2.1515420981514404 20.6829645897814594
  8.0205826744180797  2.6868617952286398 16.1024251537140586
  3.4410227075920803  2.6207178073992798 18.6584297551166678
  9.5991758322501610 11.0769272127027989 18.7135434403362986
  4.8837735153324005 10.1139548626229612 15.8430355613963378
 12.4812482406487213 12.5711521771810393 17.0865153171884572
  7.7411764680962403 12.4253118726818403 14.1062588136482603
  9.2535639217819217  4.8667128046894401 16.6936972269978590
  4.3604357346950398  4.9865075327748807 19.2965414644863706
  5.9421122814549605 12.3983013889885605 16.4931915931080404
  8.1642495822076810  4.9439778980127995 19.3797644523301997
  3.3473451361334403  4.9517061825097608 16.5873184342354385
 12.4179211350698413 10.1717626472904801 18.0741072277818695
  7.8236114332240803 10.2571730383597597 15.5576994561450412
