 K Nb  O 
 1.0000000000000000
    10.6197739999999996    0.0000000000000000    0.0000000000000000
     6.1075039999999996    5.2496390000000002    0.0000000000000000
     0.0000000000000000    0.0000000000000000   34.6118799999999993
 K   Nb  O  
  12   4  24
Cartesian
  1.8851571674636800  1.3083361876251700 12.5039535313719998
  9.8500328286841601  4.1685030935764100 15.5286338067519996
 13.6733727280342787  2.6247361357326802 15.6361369215568011
  6.8773643872008394  1.0811034636545700 15.5281291655415998
 14.8418005986087600  3.9411924124666600 12.5041785085920001
  8.3636946540300787  2.6247877396840500 12.1170882417607988
 11.9243013393333790  1.3878190818541303 19.0833441448683985
  9.8400551939899792  3.5824821122663297 22.1074287497935984
  3.0537276138229994  2.6247187594275903 22.4939001562103975
  6.8870150988108598  1.6662088554266601 22.1081881344407982
  4.8030816385188801  3.8624531820984402 19.0833320307104017
  8.3635325717043010  2.6243175295188199 18.9756735085644017
  0.0000316110166600 -0.0000924986391800 15.5036474905800006
  5.3098652353469999  0.0000395297816700 12.5431462936899987
  0.0004011674101400 -0.0001960215202600 22.0691767383740007
  5.3097734433102595  0.0002975495385200 19.1081556710464007
  4.3269292569755997  1.2150988717414801 13.6555361205348014
  7.3547392476146793  4.4859069767799706 16.9713867597019998
  1.6937086388308200  0.5910369063818000 16.5161065897264017
 15.0334746275218993  4.6584056521268202 16.5158753823679980
  6.1504240376984791  3.5037404670641701 14.4277136647015993
  9.4228730168400006  0.8700027228418000 14.0300145105316005
  7.3046913170043188  4.3795172678420702 14.0301477662696001
  9.3723007693262801  0.7635880781186500 16.9711399769975984
 12.3998795803140194  4.0343326625252400 13.6556863360940000
  6.6145699526193198  0.8591007975305001 11.5274904413067993
 10.1126855336437380  4.3907971671613701 11.5272114695539987
 10.5770144253622185  1.7458045119013401 14.4278618035479997
  4.7420208095655001  1.3479590453946402 17.6403378329567992
 11.9847250700126793  3.9016889314880503 17.6407074878352006
  4.6292088488153196  1.3139872140231099 20.5821673050620007
  5.0610747844061592  4.0900916506673504 23.0842833002215997
  6.1482693712129795  1.5859507995029600 18.0956501919807984
  9.5676063402411184  1.1543071071864601 20.9555737651351990
  7.1616440079612591  4.0940104536844597 20.9575231062168008
 12.0982900052386597  3.9368313798601902 20.5825684567512006
  7.0298091429124403 -0.3032802019415700 20.1835100940536023
  3.5900566273264802  0.3042487078406800 20.1840988421323999
 10.5785790345166202  3.6639316262574702 18.0963503903132015
 11.6655142145626183  1.1600971440251200 23.0845453121531996
