Ba  O 
 1.0000000000000000
    11.5796279999999996    0.0000000000000000    0.6490220000000000
     1.8552160000000000   10.5603429999999996    1.4413290000000001
     0.0000000000000000    0.0000000000000000   34.5414559999999966
 Ba  O  
  27  54
Cartesian
  4.6247784890501196  4.4267430830402201 20.7551597006746817
  8.5201680672988402  4.4349042217140493 20.9523750055549698
  0.8007916797573200  4.4265404300580498 20.5477619040638864
  2.5635938338257200  7.3740619479735194 23.3370770053995749
  6.4241858540768799  7.3741118983959089 23.5529705322465297
 10.2824197759814790  7.4049673197801704 23.7788536225551255
  2.6564710628979196  0.5667592467435200 21.5002271400601579
  6.5470597213236399  0.5387157278898700 21.7218695917085078
 10.3729747466254398  0.5492700514943599 21.9478880279846003
  4.8539152917432400  5.6433246936177701 17.0222978577972910
  8.7139117469251595  5.6447310144950791 17.2380962726242188
  0.9937639268118000  5.6436876526066797 16.8082861103996173
  2.7651905879323198  8.4295608385834200 19.7377254278843388
  6.6271141421182005  8.4283735392199297 19.9551793480411668
 10.4847591824904001  8.4295231381589097 20.1718569558341265
  2.8804847616974802  1.7633706150874902 17.6629803454926879
  6.7422016851817999  1.7627795526897798 17.8769663270072812
 10.6029872978217199  1.7629658371403001 18.0937881199272788
  5.0591200847783995  6.6455653455997794 13.3931354522602977
  8.9196961634835592  6.5494336984433392 13.5759153179292387
  1.1946189778681600  6.7392773013646297 13.1993731238323306
  2.9359416387832002  9.6407355535449692 16.0258584805024675
  6.7536973045274795  9.6052442471871391 16.3337807250491593
 10.7779178429143201  9.6193631089678497 16.5248248497992307
  3.1288539189037197  2.9827996109481298 13.8244014970156499
  6.9749132132565599  3.0930812728971295 14.0219133933807480
 10.7710943872035987  2.9766941486426801 14.2249983699717575
  0.8377788483897199  1.8802810043375899 19.5982032206983092
  4.6965453174133200  1.8820907303175001 19.8140414673930785
  8.5567160183212003  1.8826281461727699 20.0322186518580665
  2.6118855610687599  4.6377897426369099 22.5657951941583477
  6.4671504055898792  4.6342620600577602 22.7974720688969406
 10.3224734929912412  4.6271862078340398 23.0043376752918967
  4.5798006328501994  8.5101645573926596 21.9870276677416392
  8.4291530881428010  8.5092341911743592 22.2025194096019973
 12.2967347017450788  8.5111423395510286 22.4190900980502263
  2.6348309137184800  3.2889978122674299 22.1098226373174107
  6.4902217030122404  3.2777843120528800 22.3449065438785190
 10.3481834295574782  3.2903428831553398 22.5543650678526006
  4.6032767080805597  7.0803030914842093 21.5360003333091861
  8.4557495155631592  7.0787168223621793 21.7515438358636359
 12.3220170384563588  7.0820781795390797 21.9683181655750985
  2.5213461373553598  9.7464017119823900 24.0763571918735266
  6.3849117490873999  9.7510692779849588 24.2960573443904977
 10.2460285308389203  9.7449369924082898 24.5013309523728502
  1.0443030944635598  3.0639129719105500 15.9329723484141095
  4.9049778543492000  3.0597975006400198 16.1515456934581003
  8.7615802902501603  3.0628528190767801 16.3666604771292583
  2.8125444470547203  5.8141675993963098 18.9272170966600086
  6.6707482933917994  5.8137008322357104 19.1439900629850683
 10.5299011311750004  5.8138828925490289 19.3595284713953468
  4.7842293888503198  9.6993337352142390 18.2749247549766807
  8.6434126528517599  9.7000080131147897 18.4900508757869275
 12.5037133957774405  9.6988975930483399 18.7096653160144584
  2.8380243374051197  4.3829915819912202 18.4694798071927764
  6.6964377660708392  4.3826842760099201 18.6859686599282995
 10.5555258002664392  4.3826912458363001 18.9018301316846795
  4.8100722114395200  8.2687458233108195 17.8167303117278202
  8.6689839284871599  8.2692025581455688 18.0324039768504072
 12.5295062876449190  8.2685692543758602 18.2511468962769214
  0.8626437207907600  0.4528560207661000 19.1531445237522391
  4.7216526652431590  0.4522466889750000 19.3728443157541790
  8.5818404422088808  0.4547730398308900 19.5851663675271475
  1.2483490695060802  4.3241153464907605 12.4294067857721995
  5.0930668849331600  4.3370941136411902 12.6806642833923480
  8.9508585337021191  4.3413898499667294 12.9314851707946499
  3.0194864819072000  7.0036698504361095 15.2105795575250102
  6.8824398720163993  7.0072418864558594 15.4309073304740991
 10.7385090337851210  7.0036983633622096 15.6426640455573889
  3.1439456544348001  0.2589816405251400 13.1784395009015380
  6.9948423704828802  0.2933673845742999 13.3495639327556201
 10.8468728391419589  0.2464269767495900 13.6252807715827498
  3.0434884894022396  5.5717511241078297 14.7606689799590480
  6.9068004025666001  5.5804375342424795 14.9821145998186598
 10.7641200829841601  5.5734060354593602 15.1931594591349590
  5.0229587205758790  9.4439345854484191 14.1621281416202400
  8.8743134607086791  9.4603741882068100 14.3451620417520900
 12.7293292340682402  9.4335986497371707 14.6058237834515072
  1.0697194185394401  1.6345008485967500 15.4914838358270472
  4.9311511727053201  1.6328817368079898 15.7044829042557890
  8.7839617177116800  1.6337123077849400 15.9203966510075379
