Ca Ge  O 
 1.0000000000000000
     8.2145849999999996    0.0000000000000000    0.0000000000000000
    -2.7381950000000002    7.7447850000000003    0.0000000000000000
     0.0000000000000000    0.0000000000000000   33.5359040000000022
 Ca  Ge  O  
  24   8   8
Cartesian
  0.0332293654224998  5.7850484759925003 15.7779117492928016
  5.5096632313063996  1.9127166176590502 15.7779080603433624
  0.0787285552580500 -0.0556780338435000 12.3675765875705608
  2.8169353294965500  3.8167341379103998 12.3675806118790401
  2.9060855096884999  0.8493905524953000 13.7699340707769622
  5.6442745404233996  4.7217818133297005 13.7699461437024002
  2.9316580878144500  6.6398834574471000 14.3294698975276802
  0.1934322283568001  2.7675199229429999 14.3295245610512012
  0.0787484071718003  5.7529073084510998 22.5097417740918431
  5.5551334510388495  1.8805021070037000 22.5097464691184044
  0.0332334727150000 -0.0235193630880000 19.0994139902684807
  2.7714476948439000  3.8489005534509002 19.0994096306009631
  2.5862335016127997  6.8841424366174504 17.6867599784569585
 -0.1519932340672500  3.0117660457702500 17.6867113513961591
  2.9316802945758997  0.8312799923556000 20.5479319685356820
  5.6698605904687494  4.7036792303185502 20.5479125177113602
  2.5861849534154495  1.0755848206531500 17.1906127113699192
  5.3243964921132498  4.9479660907148997 17.1906066749072011
  2.9060586206135999  6.6579821680657503 21.1073846262444818
  0.1678651813847499  2.7855957089980503 21.1073923395024003
  2.3506526483502501  7.0507214545813506 11.1726433656307194
 -0.3875567545554502  3.1783450637341502 11.1726336402185620
  2.3506602879142999  1.2421217844345001 23.7046840507257599
  5.0888560546088994  5.1145202479189509 23.7046884103932811
  0.1145234177218994  5.7276174100642505 12.5564766215446397
  5.5909110902561494  1.8552161584572000 12.5564689082867211
  0.0736327469811000 -0.0520609869049500 15.7240457095699213
  2.8118234753968996  3.8203275632547005 15.7240500692374408
  0.0736242859585499  5.7565321776224998 19.1532998161747194
  5.5500092202977998  1.8841365797085001 19.1532974686614388
  0.1145387789958500 -0.0809929478859000 22.3208722577903984
  2.8527339159056000  3.7913947503474001 22.3208746053036791
  4.1259496023617492 -0.0131926216647000 15.7856561956035204
 -1.3504322651991001  3.8591949991207501 15.7856535127312014
  1.2285072325726998  2.0356147384315504 12.3838653115024009
  3.9666888154172000  5.9080124274374999 12.3838777197868808
  3.9666699492536499  0.0994298732655000 22.4934496965696020
 -1.5097109873209000  3.9718185783208497 22.4934496965696020
  1.3877510153262995  1.9230023891696999 19.0916718914710408
  4.1259411961031001  5.7954013173412502 19.0916688732396800
