Ba Ge  O 
 1.0000000000000000
    10.8910769999999992    0.0000000000000000    0.0000000000000000
     0.0000000000000000   22.8326549999999990    7.7656320000000001
     0.0000000000000000    0.0000000000000000   38.8281599999999969
 Ba  Ge  O  
  72  24  24
Cartesian
  8.1680754433275897  4.5773666930833494 13.8404899867046396
  8.1684158983946098 11.9841550804604982 21.8951501122367986
  8.1685871061250488 19.6021535180168982 21.9277003800153594
  2.7227621707999501  0.6202349168289000 18.3423069207705574
  2.7227767648431302  8.0373521123483993 18.3026777358297572
  2.7243322284602698 15.2099174165717983 18.0553678279027210
  8.1683404232309993  7.1195049539219992 18.1503724921343981
  8.1691570361844601 14.9205340638362980 17.6718085087219201
  8.1683604628126787 22.2021851172407985 25.7841309368563216
  2.7232293980032503  3.3512716140339003 14.5001273081817583
  2.7229307646719101 10.9070629396958996 21.9661456943577562
  2.7229418735704498 18.4736175789248982 22.1597929884441598
  5.9484959507031299  2.2555379804211002 16.6236389126438375
  5.8840791510358503  9.8836067604652502 16.4732537991167973
  5.8834046666372393 17.4281198961900010 24.2495845103231993
  5.2482345510495296  6.0793820781740999 15.7862067476198398
  4.9837829737848001 13.6531744407115490 23.5085064434035189
  4.9571038648332895 21.3470661118958986 23.5781728599513585
 10.5481677376888197  1.7190902310333001 12.7890555636211189
 10.5057747650201705  9.2021826115018488 20.3933799333734385
 10.5053006764383596 16.6559103710279999 20.2669009296767975
  0.3979756367308800  5.3690186806309503 19.7386887758860787
  0.2108647556554800 12.8386786101629990 19.5324519168575996
  0.2425737996086700 20.4637722952606502 19.6924350409113593
  5.0477167541871300  5.3692218912604499 19.7386934352652794
  5.2352678525948697 12.8371661750957990 19.5331940006515197
  5.2033019970460197 20.4635594949160478 19.6927657015219175
  5.7884528811173688  1.7192000561038498 12.7892517234854388
  5.8309654378114795  9.2025527288394002 20.3934068024601594
  5.8318844268887391 16.6560311557729506 20.2672673898508791
  0.1971271867707600  6.0791332022346003 15.7858537996454391
  0.4617078232979400 13.6530956680517974 23.5083985011187195
  0.4888622188497300 21.3473026582016985 23.5782474876748793
 10.3883371530153301  2.2558820685319496 16.6238856267724806
 10.4526221706509101  9.8831126618110492 16.4734429699123197
 10.4530586850170693 17.4276171211269002 24.2500568937177619
  8.1682971856553088  4.3143929590801502 22.0391717562777565
  8.1679442058497393 11.8705998390631500 29.5050224048025562
  8.1683696113173596 19.5807764447731500 29.6109219401049586
  2.7236798529479698  0.3013243746474000 26.3331391425177586
  2.7227372302336197  8.1020881691105995 25.8551267519462371
  2.7227115272918998 15.8524399729258505 25.9870326122534365
  8.1682115817900893  7.1843460408972000 25.7025104946892817
  8.1681917600299503 14.6018089228133991 25.6631708901657554
  8.1710756083087794  0.0120332658381000 25.9498006779110391
  2.7229016854963195  3.2375796050330998 22.1103374833958384
  2.7226816857409197 10.6447858299967493 30.1639966189631963
  2.7226811411870697 18.4522400490280489 29.8429017915571215
  5.6566116019584900  2.3839104732807002 24.4724126421196821
  5.8435030278323401  9.8526052664859005 24.2666489430489598
  5.6883688933827896 17.5909210645444496 32.0783634458380789
  5.0602638194449794  6.0192264803314499 23.6119406235148759
  5.1027578613081896 13.5027640975724985 31.2155823942144011
  5.0596212459019796 21.3985991859043487 31.5035640231782423
 10.4293246321971296  1.5686132165416500 20.4968710355673558
 10.6938810905333685  9.1426624464478490 28.2194883456998404
 10.4023037612493585 16.7073779153165987 28.1927850552230375
  0.4385303045127000  5.3383560232517997 27.5320892781043227
  0.5024746492597200 12.9659656386038993 27.3815056750233587
  0.4380790871925900 20.6266469847642000 27.5208417696844769
  5.0068551758554500  5.3383505434145997 27.5320905206054398
  4.9426775442390891 12.9660909898798504 27.3815242348838375
  5.0076405314179198 20.6267958536747997 27.5210399486131188
  5.9074255904253592  1.5690305974750500 20.4964072720243173
  5.6425438156191294  9.1424354898571494 28.2194775514713605
  5.9341091647184401 16.7074320287089506 28.1924598305548813
  0.3852505023640800  6.0192216854738998 23.6118465817113581
  0.3421329463426200 13.5027928667177974 31.2155218999411161
  0.3862461646234200 21.3983918653969489 31.5034003236556757
 10.6808339070196787  2.3845123420665000 24.4721533476671986
 10.4931270662108407  9.8525561762776483 24.2666982548121588
 10.6484111707906788 17.5909559985065975 32.0785888821350369
  2.7227375569659298  7.5170602929854997 21.6631157460479997
  2.7227083688795699 15.1897721650652979 21.5936755423603159
  2.7229986160816200  0.0627811248411000 13.6760368095590401
  8.1682137600054894  3.7584513738329997 18.5500167648767977
  8.1684314726347189 11.1675497409164990 18.5586447703103978
  8.1682994727814791 18.7407393213619500 18.8285617531468787
  2.7229076755886701  3.9592684561093501 17.7327983069798378
  2.7232455167972098 11.2451839644881986 18.1172605361932781
  2.7229090914286798 19.1736332172220507 25.5362391501235173
  8.1680219681395201  0.1595527665276000 14.5784529480038394
  8.1682890173475595  7.6021397886996001 14.9305692232166400
  8.1684473736071403 15.3435580879195488 22.3834372105075161
  2.7226912698886796  7.6200531481798501 29.0747496252326378
  2.7226050125588399 15.0622168529281488 29.4264916746393617
  2.7226351808421301 22.7111537663360998 29.3880660850022366
  8.1686246803406988  3.9767032431407996 25.8881904056563172
  8.1682258491009598 11.2626367893170993 26.2725415086758396
  8.1682412055195304 18.8807882056620002 26.2351238204159998
  2.7228900320439298  4.0543559611630497 25.4464012714867209
  2.7226480323129900 11.4628230053357978 25.4563381741939203
  2.7227646757476598 19.3135546953072001 32.9422911706828785
  8.1681114927924607  0.0319956277780500 22.4109127930867160
  8.1682779084490189  7.7045773537243498 22.3421792619110384
  8.1682951163506807 15.1595250620071482 30.3305160754713619
  5.4531183628596898 22.7923608437622001 25.9367227323724769
  5.4500692969427700  7.6418236280692504 17.9949767598719994
  5.5410737205147589 15.0410222125978486 18.3772351027238372
  5.5738227534106795  3.6720898245406497 14.3603575806297581
  5.4772777122364795 11.3926804041961489 22.0572738327513598
  5.3561059855714195 19.2567771887717996 21.8968943508403200
 10.7624117767158598  3.6731074759740001 14.3603064827711986
 10.8585673529765394 11.3937099286100985 22.0573945106726370
  0.0888832774154700 19.2574795212395991 21.8938006007078414
 10.8836194439350198 22.7941997857959002 25.9386656158425595
 10.8865968465652792  7.6425394318034998 17.9960530764671987
 10.7931626237145881 15.0406290342787496 18.3785628704832007
  5.3461360758640790  0.1815387866802000 25.6285502272396783
  5.4415233955531797  7.5789829099985999 26.0092430963366397
  5.4379351124139896 15.2610730667930987 25.8340865486054412
  5.4136898324396698  3.8279640220212001 21.9482774410636736
  5.3172591475739690 11.5485849691078499 29.6454078693158394
  5.5348929254064894 18.7964806820134491 29.8751802622156788
  0.0320031030321900  3.8275270050044998 21.9467158501247965
  0.1282257683271900 11.5497313967153996 29.6431132027161581
 10.8019689307552493 18.7966761295402485 29.8752805165247963
  0.0938024501640600  0.1800491842680000 25.6273679874240017
  0.0042950051257200  7.5797448356959496 26.0092968345100815
  0.0075294371731800 15.2617422919111494 25.8336366078873567
