 K Ru  O 
 1.0000000000000000
     8.0471590000000006    0.0000000000000000    0.0000000000000000
     0.0000000000000000   10.6030320000000007    0.0000000000000000
     0.0000000000000000    0.0000000000000000   33.5932099999999991
 K   Ru  O  
  16   8  38
Cartesian
  4.3795228049050303  4.9800465959138398 12.7141102029101987
  7.5099461961768705  5.8742818217899204 16.3714657949129005
  0.8012277784598600  0.6334692402931200 13.9267626005395986
  3.4860573633849103  9.7772662773852002 10.7634724259698995
  6.6369772709877006  2.0749518648144001 10.8399440092138999
  5.7889976714707698  8.2143897515565616 13.8581911324912994
  1.9696590904702702  2.9356929608450399 16.9009797753341999
  1.7772103977977800  7.6389780491613610 13.5426323065599998
  4.8242515416593204  4.6698214952030401 19.6671978717717977
  7.5071477966346203  6.1241150210776807 22.8301393488216995
  0.3608325977702500  0.3173160904214400 20.8919135911121998
  3.4847729563369203 10.0319202512020809 17.2216266288520998
  5.9893573652129808  2.3609105483990405 16.6914478388048977
  5.7991606699866400  8.2648896603055206 20.0532046824619989
  2.6219957580212503  3.2351942610213600 22.7461875655069967
  1.7600582807472303  7.6897798262313612 19.7309204958887001
  0.1476475029570200  4.3862002500228003 13.0615755237674005
  3.7648292181958403  6.1994771313208803 16.4905036704799990
  4.4306237130436505  1.1051936806996800 13.7101273797558001
  7.5371159800517509  8.9577365159805602 10.3594129601577993
  0.4043484147786501  4.1927487794253606 19.8808362422914975
  3.5048031398038204  6.9530376904401603 23.2299784996614989
  4.1738305003082905  0.9143023121786400 20.5314876739049019
  7.7887726107258199  9.7057741677916809 17.1056695865741020
  4.2329528970097003  4.5550603205632800 17.1151190206150012
  7.6507849979039904  6.0178162323074407 13.6769678580969014
  3.4533368101750104 10.2050021309940000 13.3923443473904005
  6.8527693234305707  4.4596302757749600 11.8854248362597996
  5.0476096939371704  6.0062398419698413 15.2654919949595005
  3.3839548490497302  1.2917948504128802 15.1836602791278992
  0.6081567989819001  9.5386792900185604 11.5998277943274992
  5.0031315171839603  2.7628431814236003 14.0589942093342000
  7.7413717862954003  7.4678024884927208  9.5962608916432988
  0.5318229776681100  2.7357410894193603 12.3956838605732997
  3.4359668565303303  7.8264525906204003 15.7650774486596994
  4.2079244621447200  1.5658076279947202 11.9946175497721992
  0.0486709075353900  8.9718507420273603 15.5152598628341991
  0.0159647587401000  3.6998704419362403 14.6985041169189987
  3.9727516319662501  7.5857612194927206 12.0652617188774993
  5.9603684405745607  0.3025032305961600 14.0028283778068001
  6.2475833746082907 10.1089388731346403 10.0697071327104002
  1.7182175603562702  5.0191223738647208 12.6051936255840005
  2.1295960537089100  5.6514194489702403 16.1375643360532983
  7.4738142108521002  5.6925897498624005 20.2043012301963003
  0.2085339173828200  0.7491077098005601 16.4764439042987014
  3.6277667067726505  9.8846969398214402 19.9174306696728998
  7.4046623984742199  4.0091419059489599 18.4065263319720991
  4.6262012216069310  6.3681497402555998 21.9942075908422012
  2.8337349393053604  0.8454970108939200 21.7078204366106995
  1.0234375206768200  9.9043033243836014 18.3292545584659017
  4.5623977925152204  2.5659978923436002 21.1939817198395986
  7.4635119160139407  8.0774222228779209 17.8352291169527994
  0.9747877771696001  2.5355738704137600 19.5310126780922992
  3.6985032461724003  8.4529894625616002 23.9758693690816997
  4.0380396009502801  1.5994143620400001 18.8938939351953010
  7.9982253527232610  8.3139322883364013 21.5328461711405019
  0.1839675503876200  3.7295280767131205 21.5978298843607988
  4.0708889891757707  6.9316677035654406 18.0833119494139005
  5.7440039132404301  0.2813497576348800 20.9880435849160989
  6.1549880958020706 10.2527680479417604 17.4610286399170995
  1.9354989809868601  4.9937252494060802 19.5901068297353973
  2.2205968684308703  5.7978222977347205 23.5267950018695977
