Ca Sb  O 
 1.0000000000000000
    16.3870600000000017    0.0000000000000000    0.0000000000000000
     0.0000000000000000    9.9928530000000002    3.3309510000000002
     0.0000000000000000    0.0000000000000000   39.9714110000000034
 Ca  Sb  O  
  48  24  10
Cartesian
 13.4240280106290015  6.3105845994593999 16.2263170700145523
 13.6696811832298017  3.3067933444915201 19.4354370994742709
 13.5268319037978024  0.0604946335628700 16.3175799766549829
 10.8618579216840008  6.6742990668127797 19.2826143652615691
 10.8733511500856022  3.3716567534574602 16.3807053547321217
 10.8698895475312014 -0.0108388479349800 19.4561747061674915
  0.0000073741770000  8.4925471354998301 17.7742625749005505
  0.0000088490124000  5.0392348829667002 20.9927388087128790
  0.0000044245062000  1.6357131197199002 17.8383858210784219
 -0.0000050799886000  4.8703375802027704 17.6436676175795917
 16.3870557393644027  1.9603278516404699 14.5788066927675910
  0.0000121264244000  8.3642381035515907 21.1014705675711696
  5.5251801196556007  6.6743094593799004 19.2826270228751397
  5.5136706680646004  3.3716468605329903 16.3807044553752910
  5.5171838898580008 -0.0108324525090600 19.4561784368325732
  2.9630370693596002  6.3105572190421801 16.2263075434947019
  2.7173758670993999  3.3068019383450999 19.4354263738123905
  2.8601743466454002  0.0604950332769900 16.3176084895948321
  8.1935232813054011  5.0292961912299603 17.5110989368252312
  8.1935229535642016  1.8246357001817100 14.6222261697869129
  8.1935278696822014  8.3552397392821494 20.9911930419741246
  8.1935291806470012  8.1896753527793109 17.5317341707998011
  8.1935260671056014  4.9936484868660003 20.9955332762947506
  8.1935268864586011  1.6490140067770198 17.9079436708974313
 13.7106362151936008  6.6727759561585200 22.7358132457467690
 13.7072291815490015  3.2902943447602802 25.8113875887551494
 13.7187281454216006 -0.0124080256415700 22.9093606292532463
 11.0538569101740016  6.6014158936716898 25.8743691363713744
 10.9108735845912008  3.3550545275547301 22.7566490155627648
 11.1565623171122024  0.3512607743736000 25.9656027306431909
  0.0000018025766000  8.2995218893103395 24.5317128335973038
  0.0000018025766000  4.8372276607866898 27.5699554436130292
 -0.0000034412826000  1.6324836294873601 24.6809584987238395
  0.0000013109648000  5.0129634725726406 24.2840921134723331
 -0.0000016387060000  1.6682978147823000 21.1965292889201216
  0.0000065548240000  8.4650978675226600 27.9913746263015604
  5.3332440574760005  6.6014211898837800 25.8743804949140426
  5.4761873986324003  3.3550570257679802 22.7566378568772087
  5.2305025990058001  0.3512408885961300 25.9656076937598961
  2.6764454157255999  6.6727759561585200 22.7358264363124007
  2.6798213139562002  3.2903018394000298 25.8113824924003126
  2.6683338210256000 -0.0123989321453400 22.9093668581315342
  8.1935245922702009  5.0261628322432799 24.3535777482746170
  8.1935300000000009  1.6228598125486500 21.1991545775061674
  8.1935300000000009  8.1622903388469297 27.7487289394195678
  8.1935224619524014  8.2904212981547101 24.4213496692513310
  8.1935147600342013  4.7013997064556605 27.6133016730205618
  8.1935175458344016  1.7913560021931598 24.5484342195444789
 10.5065017397838023  6.5315937312615597 16.1188287513951813
 10.4757186475738013  3.2742127464988502 19.5492037625002837
 10.4051902161692009  0.0828384530138100 15.9998257128593924
 14.1465228344400007  6.7770815556295805 19.3156812488206029
 14.0514002117756025  3.2317717008084297 16.1527075258648303
 14.1002446299058022  9.9620928999668710 22.8304427574115714
  2.2405473255372002  6.7770681652065603 19.3156699902063913
  2.3356502837296000  3.2317744988072699 16.1526852751127308
  2.2868274965186002  9.9620966972510114 22.8304584128809118
  5.8805633402048008  6.5315864364788698 16.1188263198009523
  5.9113438104852003  3.2742210405668404 19.5491873409123293
  5.9818429090524008  0.0828470468673900 15.9998257794784795
 10.4804369737596001  6.6927101989655693 22.6925892612714115
 10.5290627885094015  3.4303025093582704 26.0395471685999844
 10.4339773644712022  9.8775460688041807 26.2074097943111610
 14.1753801193588025  6.5790568850841904 26.1921898859471298
 14.1048738104852021  3.3877003788774900 22.6429224904958417
 14.0740866215102010  0.1302391515051900 26.0731660289675915
  2.2116829941826004  6.5790651791521801 26.1921910517800214
  2.2821912695034001  3.3877048756613402 22.6429127974287141
  2.3129781307372004  0.1302416497184400 26.0731680608476744
  5.9066269591348011  6.6927140961782401 22.6925853640588713
  5.8579883624782001  3.4302921167911502 26.0395289149888747
  5.9530877155174009  9.8775618575119193 26.2074086617879836
  0.0000129457774000  3.3436310977192498 19.3997506573501823
  0.0000889817358000  0.1157013491037300 15.9879971067142499
  8.1935300000000009  6.6827442267401409 19.3517771642613710
  8.1935612992846014  3.1671223387537499 16.2245137669025397
  8.1935165626108013  9.9425588709224701 22.8333282934087620
 -0.0000029496708000  6.7123513513941306 22.6895775488543912
  0.0000157315776000  3.4947750978433798 25.9675888696514505
 -0.0000054077298000  9.9720349892736309 26.1712876642879415
  8.1934669098189996  6.5462485499716498 26.2040406762258300
  8.1935314748354013  3.3182709355902604 22.7922339969223806
