 Y Bi  O 
 1.0000000000000000
    11.7239039999999992    0.0000000000000000    0.0000000000000000
     0.0000000000000000   13.6217439999999996   -3.9079679999999999
     0.0000000000000000    0.0000000000000000   35.1717119999999994
 Y   Bi  O  
  36  18  34
Cartesian
  2.1265538095295997  1.5263501971251199 12.2211455243481613
  5.8690024041484801  1.6541508977249599 12.2297535663820796
  9.6131273998003195  1.5318965626295999 12.2562338403110402
  0.0044505111974400  4.4076297972689602 13.7218028915673589
  3.8786763729715199  4.1532490405491203 13.4532664014911987
  7.8492319264396793  4.1511704986321600 13.4717179896422401
  0.0243051770995200  8.5317748920225611 10.1772613779263992
  3.8828022492671996  8.5333438444964802 10.1956819368115195
  7.8278233743014392  8.4947136682520004 10.2212082366720001
  1.9446400875916798 11.0068708408315210 11.5143402711513598
  5.8696581220991995 10.9580887874361608 11.5074543533759996
  9.7790112622771197 10.9702423798678392 11.5126145515622387
  1.9296208286553600  2.1981263902313599 15.7219961120678420
  5.8519985227430400  2.2405631628366400 15.7834494559833587
  9.8034672087820791  2.2256602938134402 15.7908186721612793
  0.0242001309196800  4.6132306800724798 17.4959462008972793
  3.8742897570508794  4.5856124578950395 17.4269603659007970
  7.8260993742182388  4.5706767604688006 17.4344107505740773
  0.0130281883200000  9.0353160082916801 13.8082228752460807
  3.8974828046169598  9.0563313624999999 13.8126531040896001
  7.8162163576243202  9.0408471174428797 13.8257532771801568
  1.9408551424243199 11.3971406173035188 15.5012997156979218
  5.8618059201561596 11.3916851088315205 15.4837704861542385
  9.7804049999846399 11.3762892688929593 15.4971428492159990
  1.9494821771827198  2.4036650216647999 19.4960067458841593
  5.8287476763302397  2.6597909962259196 19.7456822100019203
  9.7992092040883190  2.6576075668801602 19.7641965991987227
 11.5511249578636797  5.2843467634644794 20.9970266162150381
  4.0649374357516797  5.2788621044603206 20.9616374648755190
  7.8088202155468798  5.1564626977913592 20.9884822349798412
  0.0092907249638400  9.4253491750703997 17.7950943905126380
  3.8989692784051195  9.4622175149459196 17.7968930327846380
  7.8082385926694391  9.4742181351924799 17.8020411944294388
  1.9295695951948799 11.9007039370153596 19.1324078399769597
  5.8502114480563199 11.9376501932665597 19.0881021516096006
  9.7951590642124788 11.8987723737161595 19.1140642289817571
  0.0024552199756800 13.4426909427303993 10.2037172661350404
  3.9193882158067201 13.4153222709030402 10.2622663254719981
  7.8159589006924799 13.4163349113519992 10.3005278723711999
  1.9609658583897600  6.5491868554950399 12.0334561774233606
  5.8302934730726390  6.5626507234820792 12.1898498913292794
  9.7886153671948790  6.5608383504428804 12.1367910189964796
 -0.0028752874560000  0.0013599949209600 17.6034473662348780
  3.9020947539724795  0.0271857318054400 17.6718005012121608
  7.8347111679014390  0.0275453458470400 17.6682459307583990
  1.9566752612428799  6.8097151052820797 15.6146278958016005
  5.8433059513612795  6.7836159799955196 15.5496667207296007
  9.7759146275135986  6.7839134788844797 15.5461647906047986
 -0.0069277721126400  0.2619288375051200 21.1848427376217607
  3.8891175646348799  0.2498865347219200 21.0802782148377617
  7.8478045411276804  0.2481291935284800 21.0279586909708804
  1.9515344465779199  6.9899755939398398 19.1062543894118413
  5.8620412189094404  7.0164354230075201 19.0097277361305572
  9.7583299439039983  7.0176195612134400 19.0485218218291195
  1.8434042937907198  3.1164479766911999 13.5898527749875200
  5.8666885744550399  3.1534566205299197 13.7089826853043206
  9.8829639535910392  3.1219453039172800 13.6223338119398409
  3.9344276398579194  2.5492480917519997 11.7879109665254393
  7.8071882481100801  2.5510552885284796 11.8025427113548798
  0.0068467599360000  9.9582060552542391 11.7340736660467204
  3.9010010309683198  9.9782463650270401 11.7347156670297608
  7.8237711241228789  9.9497537631022386 11.7444962557823995
  1.9559850750143999  9.4654006440838394  9.8048560615295983
  5.8701323540160004  9.3882882237347189  9.8357177537817595
  9.7692747944832004  9.4015408184723199  9.8256762300057598
  1.9477461014783999  3.4248862158227200 17.5733460863961639
  5.8271005850572797  3.4577887211500795 17.6324949797414412
  9.8091938669299186  3.4544283731227199 17.6600150857958411
  0.0061515324288000  3.3863255104726400 15.6444754312780798
  3.8686375456934399  3.3567003967516800 15.5576420627443195
  7.8507899160422401  3.3533110344095998 15.5853656957721576
  0.0039406386124800 10.2368840529643190 15.6742491843187199
  3.9002356945151999 10.2615331436020796 15.6727582554470395
  7.8169044335500786 10.2450833893302402 15.6790402358476779
  1.9501469225395200 10.1957064743744006 13.6351692201984012
  5.8610966239641593 10.1874373946791987 13.6305219818918406
  9.7775165817561600 10.1710421273833589 13.6368052128422423
  5.8706226476812802  4.2596640117212798 21.4151429262720008
  9.7433439808550393  4.2612599352483196 21.4299889840665614
  0.1104771611289600  3.6944445921422404 19.6277641605619202
  3.7949664087820798  3.6890825288340801 19.5953069231347179
  7.8111846925055994  3.6574834881900800 19.5086522659775987
 11.7219176189452785 10.9666985469487983 19.5048172597401575
  3.9087257940748796 11.0311427453779203 19.4838702386227212
  7.8077240305228797 11.0442155330947198 19.4738999961830395
  1.9470223848844801 10.4741582149166401 17.5756034459520016
  5.8542670981670399 10.4829652172823984 17.5650783892953584
  9.7769088145727991 10.4542195233540802 17.5748531551756813
