 K Bi  O 
 1.0000000000000000
    17.8548539999999996    0.0000000000000000   -0.2909540000000000
     7.7551249999999996    6.8675870000000003    2.1556470000000001
     0.0000000000000000    0.0000000000000000   31.7422870000000010
 K   Bi  O  
  16  16  32
Cartesian
 12.8369339980522206  0.8184405601728001 19.5985563124669611
  5.0990952274893804  2.7962898207226998 12.2298217312727822
  9.0661095526984585  6.0123110381387805 18.1860343817749204
 16.2087400392105607  4.3895414355607798 15.2888867598044094
  9.6056988603840310  2.5670049213195902 17.0644767544120306
 21.0907699389158410  4.3006083815386207 20.5099544970202672
 16.6655692959852786  1.1626861875969801 13.9243076813281519
 13.7998509262688387  6.3327819034794004 12.8804382744404506
 21.4397957180121104  5.1616298353599106 16.7430085294821502
  6.6253908242520998 -0.2974204963338200 17.7130542641865816
  9.9507065236177681  3.4243862106515301 13.2917196105822306
 17.2439141505891307  1.3827153652967101 20.9267588014867805
 14.8462174009428391  3.3335561230723605 18.5219554889678086
  8.0883525457849004  4.9278587534249203 21.8546238470138725
  4.1297493311808298  1.7232200807302502 15.9057724923227699
 10.4535673400051685  0.0463209815286900 12.0390921999743306
 11.5027179758329510  4.3316252201412908 20.3437066489099720
 22.6626281771776306  6.3542165352927107 13.3705359406799520
 18.7215689821512825  2.7642356331036804 17.9359138910214995
  7.4714283221009898  0.8098950156410900 14.1560767249281110
 17.8537356053598515  6.1996922566474701 18.0833954080523114
  3.2595497878165198  0.4904878708509001 19.4954931934956335
  6.9937958009950894  4.2791047991518303 15.3643912489805103
 13.4122210596140707  2.7696928237614902 12.1811233867069806
 13.1881623913379897  1.5275790093090500 15.7157058779493912
  6.1956087491874499  3.4430539603384100 18.7249656681273180
  2.1811429762361998  0.3763222033768200 12.4530309223194617
 17.6291789176267670  4.9506428660837303 21.6260366883219284
 15.8184297389368709  0.0480366421130300 17.4842823500507123
  8.3586172411055699  1.3559857552305301 20.4364129532666823
 12.3252765715716190  4.9609992559556000 15.8702225212483317
 19.5442285890302294  3.4029358520639899 13.4693603000716990
  6.6712165218813100  2.4921630570075104 16.5653656013614494
 18.2262477340969511  3.8059527781650302 19.8276598088961968
 14.0127281871103797  0.7429112504020200 12.7843890315721520
 10.7266765873902585  5.2081917318405608 22.1294029365394138
  9.6256922583713589  1.0233134540946200 14.6094651684315604
  2.9595035887541798  2.7034775415077203 18.2786653141449804
 24.6039314572315604  6.6613025422462000 13.8180088917275903
 13.4871994476247590  4.1142149280681402 20.6083597664435096
 11.5827904363983798  2.3317688457257604 11.5133841546132203
  4.8444282043297795  4.4692671156920403 14.7071805314424200
  1.1424662907734700  0.6840567852465901 19.3682252809641220
 15.9102151323840495  5.5888620105746902 17.7963738386684902
 15.4360094123188087  0.8396899044888501 19.3665005067183102
  7.3539269693106792  2.9088999797412805 13.5725255049265208
 11.4595753499691302  6.4626058753410911 19.7003084718035311
 18.7449479294275285  4.7715684747826304 16.7497779761497512
 12.3051308130348698  2.9531024480322099 17.0556288840434007
  5.8325438261292994  4.8170191956866795 20.5143666666389528
  1.7319366751856400  1.2696550359502801 14.4035083488440403
  7.8570015201298791  0.0109734425638200 12.2767031334173211
  8.3395187507134505  3.2443491210047704 19.3959066977653016
 19.4582418020197565  5.4008911410461797 22.2822980215841113
 15.1340720790291083  2.1352783224685301 16.0007158696309020
  4.2965009660351692  0.1844352983891700 12.5811699588639403
 21.4204622466271992  6.7023998310750805 19.1841144004234820
  6.4157278006981500  1.0625801876086500 19.9831141997559669
 10.2335642260064184  5.0248441905563199 15.8224145181757514
 17.5613600009756112  3.6181874555154305 13.2007557166679899
  9.2558523890472006  0.1030096844478000 18.8664285255543831
  2.4631033629167498  2.5244278048439499 11.9740756192876621
  6.5219829935441602  5.2341481889622807 17.5295687961737805
 12.8060914147377396  3.9200454431893004 13.9737745533990516
