Sr Si  O 
 1.0000000000000000
    10.1533230000000003    0.0000000000000000    0.0413680000000000
     0.0584970000000000   14.3583949999999998    0.0011450000000000
     0.0000000000000000    0.0000000000000000   43.0755430000000032
 Sr  Si  O  
  48  16  16
Cartesian
  7.7174217786290704  0.6762208171607500 28.2449406374879146
  2.7599707626683099  3.7138753969953502 17.6106073288902607
  2.8526366733686399 10.9374983454611492 24.8083338859867020
  7.9264976518078800  7.5332387632088000 21.2432324198510720
  5.0853354384298202  1.7784130002901999 23.6121426386859419
  0.0040803248783700  5.3731309488595498 27.0974367461456858
  0.0453000764074500 12.5531948344138495 20.0088872330532510
  5.1362499823916696  9.0007178480950003 16.2893926436456802
  5.1108526260374703  8.6277280981726001 23.2880217532875129
  0.0443698613926200 12.3646439808726001 26.9076975856685721
  0.0175644843792600  5.0378417495207497 19.7046972128866535
  5.1085672403141098  1.5425235235215999 16.1134264016692299
  2.3801519387221504  3.7656463131752500 24.8015260697856803
  7.5635124324087597  7.8461669160943499 28.2294331373049125
  7.4249088512741110  0.3500044004545499 21.2633390853400535
  2.4860673231190802 10.9026150555605010 17.6238815204733825
  7.7257547997192306  3.4557776470963000 25.4941762110524195
  2.6483104292407202  6.5122326785920492 14.8886211516228109
  2.7869168951720997 14.0083805486689492 21.8547117683730505
  7.8316651686249594 10.5927364821890002 18.3165419788100721
  5.1032431403526903 12.8158779377561487 27.0046170676389536
  0.0141293869626900  1.9937546087261502 16.1689994695826726
  0.0409293821298900  9.3205566964940498 23.3720071432704124
  5.1009712369050302  5.7306680504989993 19.8300502004748402
  5.0755700217031201  5.3576781569926499 26.8286620641681814
  0.0544103935156800  8.9852673535712988 15.9792667356649911
  0.0131936610748800  1.8051968631553001 23.0678110915759618
  5.1264822268908610 12.5799821432937495 19.5059305820280677
  2.2853153149056600  6.8251494883455495 21.8748136436919687
  7.4518429206275405 10.6445142903984991 25.5074499373042229
  7.3591684764561300  3.4208901932611000 18.3097371295408209
  2.4943899860648702 13.6821714547441999 14.8731192055853310
  2.5746989152430402  2.8809120223207998 28.1942413163271297
  7.7607663541896610  7.0518910880757000 17.6495414640518327
  7.8467922039417903 14.1783708793294991 24.8398930376673519
  2.7294523730042402 10.3960154147248502 21.1978282276402297
  7.5877498406656203  4.2857808950576501 14.9278959940539409
  2.4043217794061098  7.3445896982457493 18.2711381732485023
  2.3770503097065303  0.1010378718557500 25.4201518025809001
  7.3978930060394399 11.1006767663657993 21.8841590722815340
  2.8139187331673696  3.2577341714526500 21.2338912952470729
  7.8074939638028393  7.0138071683456005 24.8469337474767009
  7.8347652362856595 14.2573604305750994 17.6979076255239711
  2.6240678439590703 10.0726189867966500 28.1901565507772816
  7.4823671240093699  3.9623807339467496 21.9202144169646402
  2.4510470636994901  7.3065082194428008 25.4685041712721514
  2.3650317052133403  0.1800366124741500 18.2781728864235333
  7.6371155021842210 11.4774834084310502 14.9238198300199798
  5.1983640687930004 12.6783912801928995 23.5115750026959525
  0.0287975796401700  1.8311622975054000 26.6711097259492540
  0.1356748316996700  9.0345086077200989 19.7054863713659749
  5.1564880876381194  5.4918427127047496 16.4716961173121632
  5.1288449665753797  1.7884566975927001 26.8018112200795642
  0.0766459486901700  5.3678542386970500 16.3232559753564388
  0.1437554104425000 12.5876075997103491 23.3793603582317608
  5.2396297055946892  9.0160721413722005 19.7237105225390508
  4.9721856186120004  5.3423215663722505 23.3943398585080296
 10.1351743717037106  8.9905446380696006 26.7948004569491793
 10.0680606262517092  1.7707865387859500 19.7386939025443020
  5.0829677218621203 12.5699380152393996 16.3162413040691447
  5.0553297713895002  8.8665501335360002 26.6463607353396732
 10.1830201649848799 12.5272273898884503 16.4469376494175421
 10.0761540868454098  5.3238823719293000 23.4125627726303946
  5.0134597113353099  1.6800094631651001 19.6064784285356311
  2.5577686775034598  1.7077955420012001 23.2941527242048743
  7.6460079477191405  5.7429783640362002 26.9536527103247856
  7.6540495683530700 12.6505925659691982 19.8238968068815211
  2.5658161165349100  8.6154173538835490 16.1643989987253711
  7.6450460476764599  5.4692678697499497 19.8203060797236716
  2.5667734323730200  8.8891241149870996 23.2977408721034536
  2.5410675584778000  1.4353200132688999 16.1502863182436194
  7.6707466956609602 12.9230851811915493 26.9677666437015588
  7.6095627739312803  1.8834730893373002 23.3382476541136725
  2.5078900864791902  5.0129365390574501 26.9299321828251017
  2.6022546824732400 12.4749206184071504 19.7798014433544012
  7.7039314090256692  9.3454517124969012 16.1881152077333503
  2.5570371343397400  5.2959216950099997 19.7864854427472991
  7.6547809546629599  9.0624777560924503 23.3315584885956930
  7.6212140606021093  2.1722784207031003 16.1957206616701725
  2.5906038159746099 12.1861187330561513 26.9223241301731200
