Cs  Y  O 
 1.0000000000000000
    12.9848579999999991    0.0000000000000000    0.0000000000000000
     0.0000000000000000   12.1163050000000005   -0.5404930000000000
     0.0000000000000000    0.0000000000000000   49.9983399999999989
 Cs  Y   O  
  48  16  48
Cartesian
  0.0000422007885000  1.6062624310675999 18.7118825359368408
 12.9848568313627784  7.6771105166096500 23.4958108789877080
  9.2084483751155997 11.8853803430050000 18.0077357764593984
  9.3268567758232805  5.9661493977543500 23.4737789501562908
  3.7764183247392600 11.8853682267000007 18.0076798188282012
  3.6580625127064796  5.9660845755225997 23.4736508461430411
  9.2711073267889201  8.2062594832329996 15.3340004120631992
  9.8965632654187186  2.8481363188150501 21.0735528674176678
  3.7136926308958196  8.2064418336232503 15.3350637420697513
  3.0882269536225198  2.8479835322090001 21.0737761758465965
 12.9848178767887799 10.1217641858807017 18.3653111967101772
  0.0000216847128600  4.1218533100590999 23.6145142186143389
  6.4924043287697994 10.9829074216131506 20.6901087278322109
  6.4923303150792000  4.9305795929157998 15.9189442684065217
  2.5328097808617596  3.3696571021365003 16.2978967713162994
  2.7900857842390798  9.1479104768423500 20.9473347919222910
 10.4519527804319399  3.3697039922368504 16.2980636739975893
 10.1947381954329597  9.1479520357684994 20.9475779298972995
  3.4278327999059397  0.0252789740998000 23.8151406106657184
  3.5065557089567996  6.1567700143081998 18.7132618782930784
  9.5569746889964406  0.0254135862483500 23.8150846074484903
  9.4782058135482590  6.1571670656230504 18.7128766785384713
  6.4924943138357394  1.1089919475514500 16.0448914250934322
  6.4924077048328792  7.4159043055064506 20.9918794769444297
  0.0001092026557800  1.6695696400403999 28.6015625395925603
 12.9845714241839385  7.9733565971206497 33.5475790484981076
  9.2815222216935584 12.0562143065155514 28.1083259862571673
  9.0265695989581793  5.7196578332584007 33.2958718870011552
  3.7032781255369196 12.0560169319071004 28.1084567868377420
  3.9584374672116596  5.7195553293180996 33.2957004654151376
  9.9198831614466592  9.0649943610206005 25.7783078038684366
 10.0013575619077191  2.9337955660888002 30.8789710394729191
  3.0648571957398598  9.0648847084603492 25.7784031923254915
  2.9838740124569396  2.9341280374980001 30.8787552150182023
 12.9847697029655986 10.2204777824875510 28.3609121971835698
  0.0002543733682200  4.1526180624107001 33.6742108034485810
  6.4925984523968987 11.0814552671676001 30.6929683815000374
  6.4924330253059797  4.9658480969989505 25.9778254669891311
  2.8334657276940600  3.1198920755187003 26.1205132206219837
  2.7153398774964601  9.3144402441647003 31.0439581445321799
 10.1515227701288389  3.1198743857134001 26.1205320091441564
 10.2693958051411798  9.3146132650000997 31.0439764254289408
  2.7808523815638599  0.8812908335017000 34.2552561160759836
  3.4051289055415199  6.2405988513855997 28.5168547659382412
 10.2039888679693185  0.8817477393632500 34.2565231913399444
  9.5798989364011202  6.2404918644124505 28.5168330393712317
  6.4923416119056592  1.4094535328980500 26.0969195314056712
  6.4924480877412591  7.4805930155753506 30.8805698843978895
 12.9847012727639388 11.6698034095535004 14.7870501396587013
 12.9847722999371999  5.7069678212166508 20.1925055373457099
  0.0000163609210800 12.0488391116620512 21.5548315785074713
 12.9848317705868386  6.1984977205868503 16.9902856011459917
  6.4925557322140790  9.0885672382133507 17.5986597861298897
  6.4923887469401995  3.0289333987640501 22.5699467892714694
  6.4923291464419792  3.1567318220342502 19.2813928580233522
  6.4923396641769600  9.3148232405657510 24.2641036576234512
 -0.0000280472932800 11.8882111965051998 24.7898868165918778
  0.0000850508199000  5.9314817412361505 30.3119719461474126
 12.9847512644672385  0.0001319465614500 31.9941358732584291
  0.0001019311353000  6.0568663542242502 27.0218977459643490
  6.4923725158677001  9.1561907596793510 27.4992493759562890
  6.4925650813118398  2.8894750917032002 32.6004340307998817
  6.4925339176526391  3.3805925520512004 29.3975575153918776
  6.4922437060763398  9.5261328113962502 34.2699478876345438
 12.9846482945432999  4.4696997044888507 18.3380943998749899
 12.9846841327513793 10.4857012756765506 23.0912189803239691
 11.4578920669663784  0.1035552720848500 16.3909151808195901
 11.2709094625234787  5.5493287561772000 21.4342096236456783
  1.5267963507881399  0.1028812420377000 16.3911232425355813
  1.7138173904107199  5.5491358646016007 21.4341122318134403
 11.2626653761792781 12.0641556963017003 20.3042103244107786
 11.0435658941105981  6.2049978758932509 16.0795373656795491
  1.7222028818585400 12.0638124413810512 20.3042391361292687
  1.9412950924067398  6.2047799035663003 16.0796905843844193
 12.9848278751294384  7.4046797605544494 18.8271695770386316
  0.0003415017654000  1.3231992538857502 23.7817627189094516
  6.4926873986741986  1.6494052006072002 20.8774860273818810
  6.4928155592226604  7.6007441117817507 16.0010424351350515
  4.7561811763343398  8.8642384553342506 18.8428213333469508
  4.7401241009315394  2.9407706805512004 23.7929396421852815
  8.2285676210098799  8.8645110721967502 18.8433921528988506
  8.2447105263240594  2.9411969321611000 23.7928631295505397
  4.8011254056325798  3.2394848523907003 17.9752725923579781
  4.7155416871602602  9.3699802958172498 23.0991897660739482
  8.1833960268480599  3.2398273803330504 17.9751338167210690
  8.2692442468778395  9.3701985104702992 23.0993075275620185
  6.4925254774949401 11.1402090475583506 16.9643951666146897
  6.4920954189979794  4.5561579009143003 20.9847421097088187
 12.9845605169032190  4.5316887806407005 28.6094865324529799
 -0.0000279174447000 10.0623810846082495 32.0827378558119491
 11.2075645208020180 11.8329081397784499 25.9547142241696278
 11.2932936696839405  5.8500014075569000 31.6181734338464580
  1.7770649456971799 11.8324931563322000 25.9549317294480772
  1.6919158304221200  5.8493322240317500 31.6178617966126474
 11.2494714619654790  0.2239261580639500 30.7494791898233260
 11.2320343558544380  6.1445459953567498 25.7993199294422517
  1.7357040178126200  0.2241185649873500 30.7502405812304858
  1.7530188065612999  6.1439301235736004 25.7992714052246370
  0.0005434163073000  7.4365560627267495 28.7140783121458512
 12.9845133818686786  1.4891166631534001 33.5931803580865633
  6.4929098292917393  1.6824194661451000 30.7638625153723417
  6.4923871887572391  7.7639086965534005 25.8139118301989612
  4.7706722778623396  9.1412128257644500 28.7500295174968272
  4.5506302249514397  2.8851071637507002 33.5098121926381793
  8.2141111890527387  9.1413943280133498 28.7500034215092874
  8.4343554162026990  2.8856145946041001 33.5100605477941400
  4.7779944392885403  3.5390425613843002 28.1576611926746203
  4.9661590553551793  8.9781428693348495 33.2055646742835933
  8.2069925003513990  3.5394300408182002 28.1576639070444799
  8.0184365206646397  8.9788130221644007 33.2051772914847589
  6.4920985353638994 10.7184256886162501 25.9621222775741529
  6.4924747067001602  4.6172086904069500 31.2512712609107304
