Zr Ti  O 
 1.0000000000000000
    15.2893220000000003    0.0000000000000000   -1.0048459999999999
    -0.5036320000000000   10.0954689999999996   -0.6643450000000000
     0.0000000000000000    0.0000000000000000   27.9948480000000011
 Zr  Ti  O  
  24  48  30
Cartesian
  2.2043383515997403  7.8611273834931295  9.7723777154260905
  9.8475355600001393  7.8549792428721297  9.2705285729606111
  4.6695887778578395  9.0819088482084300 11.0937537417524101
 12.3137813873180395  9.0833600718771805 10.5905037270831812
  7.4598141039037804  3.7613688304731001 17.5664146858882830
 -0.2521235110123400  3.6783053306348998 18.0610667005127610
 -0.0062061584842400  0.1173064220939900 13.6305902694558103
  7.6304525253129798  0.1236696971593800 13.1222181826235200
  2.4953387322488001  1.2439576328986000 14.9711924694460414
 10.1545238214213995  1.2418828121097201 14.4881895717328000
  4.9451292421121202  2.4233422231606396 16.2447802416137215
 12.5797344511681199  2.3896602051624898 15.7215942198008705
  1.0053397875245800  5.7781057422803599 13.9077677636985388
  8.6511184889708606  5.7728700301475797 13.3991715239626394
  3.4335187742140199  6.8674602524113704 15.2610498711696501
 11.0656885937271205  6.9140871855347692 14.7651947487725526
  6.1490587896711206  4.6485606652869000 12.0108333334953397
 13.7784533007917993  4.6542877238959095 11.5403297030190508
  5.8926942695147604  8.1035447319009393 16.5899432823764599
 13.5409442351741180  8.0963066844467004 16.0969575199243025
  1.2123210881405402  2.1571678132832699  9.4924391789961913
  8.8305264774882186  2.1270140607459300  8.9834889310713706
  3.7054508319440793  3.5026955559721102 10.7848157247924092
 11.2955289817842797  3.4932370101113199 10.2856850005836797
  3.5172636628552398  6.3445649307829193 12.1272744843375992
 11.1720938145932198  6.3389242893885500 11.6245834679050315
  6.0010767051108793  7.4304953606931994 13.4900404237383214
 13.6515482947255204  7.4370165288937491 12.9883874503883696
  1.0545708217569800  5.1195175246869793 10.8143916207251998
  8.6896562772433406  5.1120975568813600 10.3193214903135821
  0.7607952917592801  8.6326596700709093 15.3181659496166507
  8.3947268368465000  8.6359118244545687 14.8181578808280534
  3.3148169997066197  9.5846106070149393 16.7284866157462417
 10.9986910865635412  9.6253243210809689 16.2140011742326102
  6.0508889640057193  3.7783641487158399  9.0860084792049207
 13.8104606492757203  3.8653713425641998  8.5729330489742406
  2.1172217039357002  8.5293798926055207 12.8824850589827395
  9.7594450071084200  8.5295631253678685 12.3776172879348305
  4.6390973146158405  9.6525546277052889 14.2185683238342708
 12.2886004047904205  9.6429656483850188 13.7129890697548404
  7.3236089801803006  7.3819375681688602 11.0199404303504807
 -0.3273143870469200  7.3527916463017897 11.5178976181883712
  7.5468549798683000  0.8082246724770400 16.1885031637470220
 -0.0819629120008200  0.7745179205798399 16.7111207107162194
  2.4416343374957399  1.9895280075772199 17.9596621095389999
 10.1831715511176206  2.0722343297221997 17.4119128816164590
  4.7461304244497997  6.3677523049368103  9.5365176191107910
 12.3956443878515810  6.3672133078468995  9.0363755572363615
  2.3219638180417399  4.1137695496716802 16.2788768735981400
  9.9919450560451608  4.1317404940385796 15.7133053003223395
  4.8521580522430998  5.0391085274676399 17.7481527528398608
 12.4970260244151596  5.0581510049142002 17.2306229375870394
  7.5363850319347998  3.0061478941133100 14.4815347869590507
 -0.1038949481726200  3.0078975398457000 14.9872213472442404
  7.1034015838914000  9.5696990945284899  9.4238164411699898
 -0.5268682279746200  9.5443019231651895  9.9407191882008696
  2.5466699935183001  0.7188548360186100 11.7822788042215709
 10.1785592943779992  0.7117030038696299 11.2847829692590516
  4.9940790322545796  1.8438087965749399 13.1534477503033198
 12.6581922756444403  1.8334294429866600 12.6562037089322601
  3.6348881154058597  4.0582120637161898 13.8536694132305112
 11.2884859614026620  4.0625899638480396 13.3479303047603022
  6.1038746592687598  5.1687218310460805 15.2434106616221996
 13.7315212355917797  5.1663130521426792 14.7564808003568633
  1.1321858842836201  2.9186813564254499 12.5266948449339690
  8.7692163023994194  2.9276119092575401 12.0178191822910012
  0.9890751480362001  6.3755080480413699 16.9367434220534321
  8.6431297901040196  6.3868470769127894 16.4284909114467936
  3.8482725384949399  0.8267982153885499  9.3555799602139498
 11.4339160745285593  0.8173876230055099  8.8127311538082900
  6.2978940545775597  1.7425194417775900 10.8140999637669708
 13.9949560502825587  1.7315126547909598 10.3001512918218410
  0.8133969738391402  9.1584652125479895 11.3684557393019112
  8.4579325080940606  9.1586080634343396 10.8656506663438801
  3.8287712964892000  0.0984102279932400 13.3664143806657201
 11.4674086749421598  0.0810192683203900 12.8625994288996495
  5.9355536846713406  7.9276453182325399  9.6220096845016805
 13.5801292584009996  7.9276628843485994  9.1194516709967210
  6.2948796077435993  1.4070409496261900 14.6589236306629704
 13.9761102300085405  1.3850814873667701 14.1663976024804494
  1.1610805017761199  2.3937291839429400 16.4966220769859007
  8.8078797084722389  2.3944311219025098 15.9949352859940124
  3.6755496433458403  3.4943871868944898 17.8033861687529900
  2.2412510495252800  4.6527929887557695 12.3799579055546687
  9.9248727948758990  4.6302353699580996 11.8629241403347621
  4.8497310503671009  5.7187630611780094 13.6460675272829697
 12.5322279627088413  5.7274203296642705 13.1516894175406911
  7.4675246899699408  3.4532613757838795 10.4449096533238990
 -0.1631821906878200  3.4839734077569200 10.9961304814214191
 -0.3497143621220600  6.8621863794057703 15.5199332986228509
  7.2953848034721602  6.8621164178055993 15.0176033532265620
  2.1255186174022600  8.0256929169792990 16.6742723528973613
  9.7551986503591408  8.0368095426686494 16.1721762415934904
 12.6028708937006808  2.3575650939364499  8.8956571049525905
  4.7249941330045200  9.1328659298953099 17.8289868314894910
 11.0365433011903793  6.9363257875120397  7.9368580806816205
 12.3709780444524995  9.1322973530812295 17.3270508686858697
  3.3917815780781000  6.9363649579317599  8.4391937311237015
  6.1980420666270799  4.6206779894557997 18.8946391520896810
 10.0522096163982990  1.2136264020162399  7.6817307415003810
 13.8344096151129605  4.6223495972128195 18.3910340686502991
  2.5071471293049203  1.3067645741882998  8.2204808022875788
