Sr Bi  O 
 1.0000000000000000
    10.3417119999999993    0.0000000000000000   -0.7519650000000000
    -0.6573720000000000   13.5674510000000001   -0.7720320000000001
     0.0000000000000000    0.0000000000000000   32.3968810000000005
 Sr  Bi  O  
  12  24  46
Cartesian
  0.8463576023587600  6.4013747866670299 19.1112267938529996
  1.5438855891123997  0.5362288080141799 21.0989599394794318
  0.6218317745644399  2.7088831006639302 18.3481182896143764
  1.0983105323618401  9.9370005539296997 19.5932747599254640
 10.0324652511430390  4.9363922258007999 14.8182570217135012
  0.0648828510858401 12.3835826319910201 16.7631534566235914
  9.6194438035765977  1.1838022945226099 14.1099049420038796
 -0.3476348911149600  8.6312880641211009 16.0544064126311703
  8.5861655941415993  3.6303025608543997 11.2799950969789311
  9.0622895315712402 10.8585586734693909 12.5247193195565920
  8.1401799522154388 13.0308591269970595  9.7737093722909698
  8.8380400071274394  7.1661721352115411 11.7614635307361901
  8.8243856791813986  3.6360230052195299 20.6210981721355111
  7.7768476078696800 10.2589132930145404 18.2239672538730808
  4.2315079691346398  8.0506684558780606 20.2244022433011175
  3.6497923876936396 12.6446826638311105 18.3443307360426822
  4.3348458326724000  2.3591857143507000 19.9890530219901663
  3.4854854312111199  8.8393546937708187 17.1073784904381192
  8.7756830661988410  8.4111725882618096 20.8973018119410199
  8.3942977458499595  0.4580562758659100 19.5472714862599624
  7.1032682338227602  2.3793457254661101 16.7648926120404198
  6.1813278996684797  8.3267668977751192 14.4330004124899407
  3.5034046752438397  5.2406797606405595 16.4403111291238702
  2.5810305442497596 11.1883328006871601 14.1079453241204504
  3.3243736221057998  0.9501640045771099 16.0091944819280805
  2.3657159356591202  6.8129668844422602 13.4890695298105712
  7.3189631779057995  6.7547678109581497 17.3839181319501996
  6.3596318161955994 12.6176542663214590 14.8636197307778080
  6.0344479794272399  0.9229954552986299 12.5283809124509702
  5.4528157395691190  5.5162927591408399 10.6486758174388694
  1.9080248780166797  3.3084610508873102 12.6487968084026203
  0.8597973327672801  9.9313255605254191 10.2517457660298117
  1.2899192590674402 13.1090282672825804 11.3256319376908507
  0.9089061699367599  5.1574715333791303  9.9752451054908295
  6.1992642447661197  4.7278948295818308 13.7657117581982398
  5.3490927606831997 11.2086866906773608 10.8836911829036787
  4.1693961166316402  7.0851355141571704 18.2184192940370302
  4.2598328766547997  0.4573736974061000 20.9032650673083609
  7.6504740229457990  2.4986009062659100 19.1551961450832096
  9.2049284688079585 10.3290555222649303 19.9492862857905884
  2.3097410059711598  2.5718887490306503 20.1656779692076995
  1.5204920252757999  8.5181861293733299 17.6502814910740895
 10.2053975006298394  0.4100319765847400 18.5430464434394935
 10.0405516191543995  4.4004317819674004 19.1966160564955324
  9.5030450557460000 10.3208340539824608 17.0882305466078002
  2.2389215536258398  7.8273091381591797 20.6173681800377402
  1.6678830660998001 12.2413171899697293 18.8316688405919237
  4.1961608919888391  1.1745110327287902 18.1924262331417488
  3.8675248179960002  9.8567678043470810 19.1475915141366215
  7.4588947702680795  8.2650808537095006 19.1184571106392411
  9.6487986413798801  1.7120474716703500 20.9932608174269717
  2.7557367979846799  4.8214619413562696 14.3547030405008389
  2.9045757498671199 12.4948189065517798 15.9879703249749721
  6.7796269885616400  1.0727052220091100 14.8845985075581009
  6.9286145047408798  8.7461826661694992 16.5183304230775221
  1.3254422781944397  1.0888591718677501 16.5046868521585210
  0.3974305479077199  6.8903370375383908 14.1748832301215089
  9.2871371657174393  6.6768964762220806 16.6976196066539906
  8.3586091906663196 12.4786920915951409 14.3679830229762810
  8.9770676799095597  2.8766511446554102 16.0357625587603287
  8.0308122431076399  8.7364326888573700 13.5735505834496610
  1.6536982180207600  4.8308384067423695 17.2990966916059996
  0.7070248801263200 10.6908097595838196 14.8370555745963415
  2.2982561006287203 13.2007578034935804 13.3970871130317697
  3.2700330779378399  7.1705972950297001 15.5681725553556198
  6.4143375462733996  6.3964479025108893 15.3051348124253810
  7.3857223445374789  0.3665525020395500 17.4755695871660812
  0.4795256074300400  3.2385618146843300 10.9240270932858596
  2.0335712829031198 11.0689622965538597 11.7177938618776203
  5.4245635315144396 13.1103154113589504  9.9695641586132719
  5.5148253160127201  6.4817338492184602 12.6544452994402103
 -0.5213947949316800 13.1572749370856403 12.3297829929076901
  8.1640153110087201  5.0492796591482598 13.2226066183267115
  7.3740197314412397 10.9954794895182495 10.7073610326272295
  8.0162873918421589  1.3260813039949000 12.0410197561742098
  7.4453305621963990  5.7398938488365401 10.2557788774213794
  0.1816300890380000  3.2466858686686200 13.7844000853010495
 -0.3566322370607199  9.1670922109189785 11.6760527599573098
  0.0352890235089600 11.8552967524902808  9.8794996046783918
  2.2266594772794397  5.3021774884863007 11.7547769076957813
  5.8171440112251194  3.7103787420524803 11.7256647207168712
  5.4878897416911592 12.3933285390678503 12.6806497085521706
