 K Ta  O 
 1.0000000000000000
    10.6243490000000005    0.0000000000000000    0.0000000000000000
     6.1392949999999997    5.2473869999999998    0.0000000000000000
     0.0000000000000000    0.0000000000000000   34.5147699999999986
 K   Ta  O  
  12   4  28
Cartesian
  1.9235684505891602  1.8455414277622499 11.9797442897648985
  9.8129926369101916  3.8097899263988100 15.6501926547804988
  3.1255266583766002  2.6023479167920498 15.6093747974831007
  6.8206285629990901  1.0932816946202100 15.3662109947314001
  4.7132989192814998  3.9419702406081898 12.2203640088198995
  8.5774260910385518  2.6620971314459401 12.1977854817289995
  1.6752209012894899  1.3946841526106699 18.8646080633647983
  9.3288688436388192  3.6347663240243997 22.5351002621383003
  3.0012701172095300  2.4365843782565397 22.3169783056123983
  6.8236683381002807  1.2053654086753800 22.2943783793640975
  4.8244727754345700  3.9275900913779100 19.1485517571668993
  8.3941158840585199  2.5651184406612297 18.9054048666524999
 -0.0147459213657600 -0.0500482128853800 15.4931290521230984
  5.0245924455281399 -0.0046490799342600 12.1677976689621996
  0.0493606190463299  0.2834451125684100 22.3469253909506023
  5.3638337001586800  0.0067672401706800 19.0216751174991998
  1.7578112125296801  0.3085591592242800 16.3931078925316989
 15.0330525114756917  4.9834755479084398 16.5506129390973982
  5.6172946420999406  3.4136227551466800 14.6738288317372003
  7.2461665296234390  4.3332670496162695 17.0073831310158994
  4.2542398216362898  0.7231783995448200 14.0122034705853995
  4.6184443262934192  1.4925909487340698 11.1844456404369996
  7.0303922529579799  0.3280687341948000 12.4461251193899010
  9.4788988116230701  5.0016746929234497 13.2812006605520008
 10.8292916524732910  3.7142209986055197 11.1884897360378996
 11.0138806488861398  1.5946291175903098 14.3712374979994983
 12.8277932970546100  4.3631211658969802 13.3151980541497004
  9.5450751944183008  1.0631684623694400 16.8721639262914991
  6.9194062037465303  3.9000360097670397 14.0726077695623992
  9.6788933618899708  1.0022653473142500 13.9685705886468003
  1.6113173442100002  0.3760178348585700 23.3262554133276971
  5.5476681054475394  3.6013142318993996 22.0686904401064972
  5.8421976511145797  1.6683891179035499 17.9641601672318991
  4.4692796376379000  1.0899682845729299 20.5462432451110999
 12.1820854627854622  4.0117584412272596 17.5074438183545986
  4.4298711707160399  1.2316276885545900 17.6426775192823975
  7.2048128603740702  0.2301562184195700 19.8409059631974003
  9.8155765258893499  5.1108841507493699 20.1435721939859995
 10.8729942532368291  3.5590112146998898 18.1217066315215973
 11.1741935327585509  1.9103011623669599 21.2335061774188958
 12.6609434900831310  4.2670088711798400 20.4421090776918000
  9.2579416971444601  0.9177355574483400 23.3302584363522989
  6.7984292551559502  3.7502055321705896 21.1995684943732989
 10.0747463607724121  1.1576917433552398 20.5024464180150012
