Na  O 
 1.0000000000000000
    11.1901759999999992    0.0000000000000000   -5.5950879999999996
     0.0000000000000000   11.1901759999999992   -5.5950879999999996
     0.0000000000000000    0.0000000000000000   39.1656160000000000
 Na  O  
  64  32
Cartesian
  7.0049858324879990  9.8025359870847986  8.9712609501732814
  1.4098917897929599  4.2074445181302398 14.5663290316600023
  1.1685597543030399  9.5612037277913586  9.4559959870254406
  6.7637266450438389  3.9661711191625599  9.4560467344736008
  9.7842051359756788  9.7841995408876805  8.8700155388272002
  4.1891090790489596  4.1891128837087992 14.4650967128198413
  4.3073542141180798  9.9024474735007981  9.0370170540406427
  9.9024424379216001  4.3073610401254401  9.0370114589526391
  9.8025422535833595  7.0049931061023996  8.9712455636812827
  4.2074513441376000  1.4099018609513601 14.5663385992604795
  3.9661524315686396  6.7637050480041596  9.4560386775468803
  9.5612584477519995  1.1686502828268799  9.4560334181641608
  7.1049142160697594  7.1049169017119995  9.0370305382027176
  1.5098173758307198  1.5098131235638399 14.6321143978376007
  1.3915695551193599  6.9866559884947197 14.4650878725807992
  6.9866541980665593  1.3915672051824000 14.4651016924481617
  6.9310214547702387  6.9310277212687996 11.8643516524896029
  1.3359290906015999  1.3359266287628799 17.4594362394859210
  1.3043624993196798  6.8994506112214395 11.6587959524927989
  6.8994436733123194  1.3043844320646398 11.6587939382611196
  9.7517281119743995  6.9542102969862389  6.2064196800244815
  4.1566739063059197  1.3591568746300799 11.8014934685009614
  4.1245835028854403  6.9221336574822390 12.1974768695601625
  9.7196685934396800  1.3270334601903999 12.1974765898057598
  9.6969780497609595  9.6970414980588799  6.0637393409364826
  4.1019705071263992  4.1018702431494392 11.6588224732099217
  4.1334784618860798  9.7285636643420794 11.8643124868736010
  9.7285603072892783  4.1334771190649597 11.8643320696816001
  6.9542443151212794  9.7517573183337589  6.2064021673990410
  1.3591305777164799  4.1566506307398399 11.8014826140302418
  1.3270274174953598  9.7196590817900805 12.1974487262675169
  6.9221154174953590  4.1245631367651194 12.1974875561782401
  6.8828390187529598  9.6804017063468795 14.7420154662705620
  1.2877653421782398  4.0853280297721595 20.3371142088395231
  1.4059186059023998  9.7985563128921598 14.9090819404556818
  7.0010090677411192  4.2034594726531198 14.9091047124638401
 10.0216010270575993 10.0215745063404782 14.3230533745006419
  4.4264584189987195  4.4264517048931191 19.9181304640790380
  4.1850848679558394  9.7801870794793597 14.8079691326952023
  9.7801908841392002  4.1850886726156800 14.8079692445969613
  9.6804181559055991  6.8828441662339195 14.7420375668681611
  4.0853148253644793  1.2877634398483200 20.3371284203630402
  4.2034637249199998  7.0010105224639991 14.9090889343156796
  9.7985520606252781  1.4059168154742399 14.9090873117401621
  6.9826682573753587  6.9826578505116794 14.8079906178331200
  1.3875687314940799  1.3875799216700799 20.4030719037275219
  1.6289338899049599  7.2240166305222386 19.9181737141092796
  7.2240363252319995  1.6289705936822398 19.9182058299143989
  7.0335516661737598  7.0335573731635197 17.5728132003879978
  1.4384879488556801  1.4385046222179199 23.1678894507031998
  1.4704996853388799  7.0655920495075204 17.1767871647582382
  7.0655853354019200  1.4704976711071998 17.1768256030127944
  9.8542354954188784  7.0566733673337589 11.9148460348193606
  4.2591363052428797  1.4615939837692797 17.5099502046236779
  4.2906906992329592  7.0882984832361595 17.7154608082111977
  9.8857771326083199  1.4931863124560001 17.7154619272287981
  9.8631128858431989  9.8631173619135986 11.5816944089334406
  4.2680241025308803  4.2680151503900792 17.1767550489531189
  4.2360176254303994  9.8311030516899187 17.5728042482472020
  9.8311450148499198  4.2360326202662399 17.5728039684927992
  7.0566794100287993  9.8542367263382395 11.9148568892900837
  1.4615901791094399  4.2591399980009594 17.5099189280817598
  1.4932838907907198  9.8857350575465599 17.7154467085894396
  7.0882417490438394  4.2907697018755195 17.7154778732296023
  5.6796051612928000  5.6796050493910393 13.4314918238979182
  0.0845183922121600  0.0845172731945600 19.0265614720092806
 -0.0480611345094400  5.5470197037779192 13.2089461356312015
  5.5470255226694398 -0.0480574417513600 13.2089523461788811
  8.3445757891679992  8.3445798176313595  7.6139024487281599
  2.7494836488028795  2.7494851035257599 13.2089837346225600
  2.8820689944159996  8.4771640442268801 13.4314937262278402
  8.4771705345289590  2.8820723514687998 13.4315029021721628
  5.5207893717251197  8.3183287837529605 10.3635771138353601
 -0.0742903475446400  2.7232509668131200 15.9586668483126424
  0.0260310350182400  8.4186255479286398 10.8191509436876814
  5.6210809884198403  2.8235546688979198 10.8192021387428809
  8.3183361692691200  5.5207966453395194 10.3635807506425621
  2.7232044156809598 -0.0743270513219200 15.9586473774063986
  2.8235318409388799  5.6211392892368002 10.8191612946004803
  8.4186599017689598  0.0259845957878400 10.8191859689385623
  5.5692003111363197  5.5691085516931196 18.5549717587078398
 -0.0260092141750400 -0.0259175666336000 24.1501075967102423
  0.0743180991811200  5.6694092324304002 19.0105338948262386
  5.6694219892310400  0.0743344368380800 19.0105455885601629
  8.4669759484876792  8.4669673320521586 13.4154478531070431
  2.8718625467881598  2.8718596373423995 19.0105266771627193
  2.7715594042121596  8.3667192451420789 18.5549653243566439
  8.3666785129014407  2.7715089365183996 18.5550481316590421
  5.6431739767001599  8.4407201028335983 16.1652161240364798
  0.0480760174435200  2.8456290814860798 21.7603149225563186
 -0.0845825119206400  8.3080581045148794 15.9426406699015999
  5.5105076142127993  2.7129661879532798 15.9426364735855994
  8.4407229003775992  5.6431718505667190 16.1652244047667217
  2.8456332218511995  0.0480795982998400 21.7603075370401591
  2.7129729020588798  5.5105132093008002 15.9426307106449610
  8.3080689589855989 -0.0845707622358400 15.9426489506318418
