Ba Si  O 
 1.0000000000000000
    15.0734200000000005    0.0000000000000000    0.0000000000000000
     0.0000000000000000   19.0431750000000015   -0.3232210000000000
     0.0000000000000000    0.0000000000000000   40.1608050000000034
 Ba  Si  O  
  72  24  24
Cartesian
  6.7183084588230004  7.8606307314585004 16.7201122391283299
 14.2549715804867994  7.8605905503592508 16.7200546879573899
  6.9152243015505999  1.3763700388207503 21.4687967942887639
 14.4520755394960005  1.3763588033475000 21.4688576278046988
  6.9370022280324006 14.4433773931072515 25.2686315492890827
 14.4736489196684008 14.4434931756112519 25.2687199459166543
  6.0823690086697999  4.3365533251215007 15.1246424204883212
 13.6190375567648001  4.3363986945405006 15.1254414338059906
  5.9667658257270002 16.8975500036700019 19.4694333575051033
 13.5033712161921997 16.8975147737962530 19.4693399791802513
  5.8690140940901996 10.5881018488972511 24.0336874240016343
 13.4056518924084020 10.5882301998967510 24.0341820346499375
  5.6884587906964006  1.6547187957067502 25.5282458290291920
 13.2249250534950011  1.6546302449430002 25.5282722317059445
  5.9713143809462004 14.2307037860025005 15.9083917531979004
 13.5079585101008011 14.2308106182142495 15.9088525924016917
  5.8996247432236002  7.9463354927047503 20.5582257063690861
 13.4362842472666006  7.9462048565242505 20.5581379634619452
  4.8774495561558009  7.5299728484602513 26.3263906550258220
 12.4139765648370002  7.5300754911735011 26.3265407207075306
  5.3961571403352000  1.0736022186322500 17.7076594146126816
 12.9329865218216007  1.0736243087152502 17.7082128571772728
  5.2579774411190003 13.7638660638300010 21.8133127633318047
 12.7948630464619999 13.7637533282340012 21.8136676902760733
  5.3692091815276006  4.7403728012887507 22.6711980333771521
 12.9057664877830014  4.7405658990832507 22.6709537910862124
  6.1116634467688007 17.5079525082817504 13.5846532146969921
 13.6484953907366009 17.5080439155217498 13.5845789721791412
  5.3779496548488002 11.1642951939390009 18.2935162087613747
 12.9147241690864014 11.1642611066557507 18.2932991157638618
  4.3086014462200000 10.8933380454292514 14.5157870324153908
 11.8451955316202007 10.8931956024802510 14.5155613367360701
  4.3822397756802003  4.6149445482877498 18.9026944156202212
 11.9188912908106008  4.6149329319510004 18.9025881866517800
  4.5972392003818001 17.3604783524467514 23.1232844297123421
 12.1339953250469996 17.3602277442637529 23.1233469164679555
  3.1686018570382002  1.4259232366470003 14.6229469157394600
 10.7054448046025996  1.4258099297557500 14.6229861884530603
  3.1469277864201999 14.4927881479845020 18.4224700309377631
 10.6837075763548004 14.4929422072702518 18.4224039620079694
  2.9500423920010004  8.0086243851075007 23.1712850699517539
 10.4867864579302008  8.0085872509162499 23.1714535723976027
  2.1313368199426002  7.9231450950532505 19.3333709894476620
  9.6680329523961994  7.9233065811772505 19.3333425456183825
  2.2031366443654004  1.6386236946285000 23.9826991055243823
  9.7395848190600010  1.6384620180727500 23.9825829736878724
  1.9198018700938000 14.2145987824732511 14.3626202972600101
  9.4563854041000006 14.2145229906367501 14.3626874473997894
  2.1006398001126003  5.2808605740690009 15.8577204754979206
  9.6375064129463990  5.2809491248327509 15.8577410609630203
  2.1985739201314001 18.0149500013482502 20.0987771068623111
  9.7352546776966005 18.0150084638955015 20.0985913748708391
  2.3140607362718000 11.5327958647290014 24.7664050977006731
  9.8507529496362007 11.5328034819990020 24.7662531605693736
  1.6009324125774000 11.1292094770237497 17.2203073778443034
  9.1375899570758001 11.1291641542672508 17.2203418821864815
  1.6096062613822000  4.7048273821290003 21.5979042335554716
  9.1461903983251993  4.7048110049985006 21.5979972829850801
  2.3432674470663999 17.4045781562482524 25.9833924715921611
  9.8799711162300010 17.4045038878657508 25.9836089940688630
  1.1091693203190001  8.3392040006565011 13.5652818791826704
  8.6459854371957992  8.3393359698592509 13.5650671886026917
  1.4896617827451999  2.1054229495875001 18.0783052564504487
  9.0262641585264003  2.1055055969670002 18.0781737326631138
  1.6278276144150001 14.7956824148550030 22.1836502445280033
  9.1645516326956002 14.7957498276945003 22.1835197825335619
  0.5401409322799999  4.9761749157262507 25.3756219645743499
  8.0768524396219998  4.9758974566665009 25.3757339032536713
  0.8289856444984001 17.5518567386760012 16.4448039336453817
  8.3655697814414012 17.5519666177957525 16.4448984545922094
  0.6137032917034000 11.2541945953425007 20.9885659054904501
  8.1505403606340003 11.2542985710780012 20.9885705664325926
  7.2121231942776003  7.6311557119147508 23.5581901954119317
 14.7486482434142001  7.6312560694470015 23.5583511432975108
  7.4428285196824007  1.3198563701002499 14.9952816256448216
 14.9795754495614002  1.3198080004357502 14.9953326476324111
  7.4368279419146006 13.9865588565975010 18.9643720798386042
 14.9734753872216011 13.9866321728212508 18.9641358947284999
  3.8054535505697999  4.5090378348427507 25.4132452090661189
 11.3422380132646001  4.5090732551482500 25.4131795473709658
  4.1148829773428002 17.2092582136575025 16.3905089981647514
 11.6516989434853997 17.2093338150622515 16.3906723742778837
  3.8396803131611996 10.8090508581300000 21.2728517944767503
 11.3764783419339999 10.8090525720157515 21.2730160230793111
  3.4436664486925999  8.2380479880787512 16.3332601954113521
 10.9802216446692000  8.2381967152755013 16.3332078716571409
  3.6684714345726004  1.8827798595067500 20.9274772257897403
 11.2053252349994015  1.8827914758435003 20.9274348597796838
  3.6745128613086004 14.5494874876612510 24.8962848606466487
 11.2111925637344019 14.5495417607100013 24.8963734980619513
  0.0713895259304000  5.0602419639224996 18.6186504975429017
  7.6080484270366000  5.0603267060512511 18.6186868103661531
  0.3463764894718000 17.7031873278802507 23.1776871295088220
  7.8831767792576004 17.7032320793415039 23.1777092615983200
  0.0372112997514000 11.3604549405472497 14.4782143315441303
  7.5739075829392011 11.3604995015767507 14.4782031333976917
 14.9980899806132015  9.5488538988285008 18.9590084582808309
  7.4614137450740001  9.5489317854142506 18.9590665742983404
 -0.0000924000646000  3.2466813794962501 23.4653938214928530
  7.5365399718223998  3.2465829262815000 23.4655834451128200
  0.0889790011968000 15.8433320233020023 14.5973823899120614
  7.6257348243936010 15.8432004349627498 14.5975910499068711
  0.0809792357344000  6.4191530294715005 14.7312679778562217
  7.6176343684856000  6.4191937818660003 14.7310223052527824
  0.0292257033038000  0.0007649643397500 19.1176418472948306
  7.5660000668072014  0.0008043837120000 19.1176741100874636
 15.0320371312635999 12.7822138156852514 23.4045422224168718
  7.4952782933827997 12.7822389526762521 23.4045008317440519
  3.6930272416262002  6.3205623229979997 20.9323841083093392
 11.2297298556504010  6.3204537769005000 20.9325233006221403
  3.8574936287146002  0.0259575614107500 25.2937316020708138
 11.3940328468660006  0.0260626797367500 25.2937848381937442
  3.7685367854451997 12.6223688325067513 16.4261832713791378
 11.3050374156414009 12.6223905417262507 16.4261764771784016
  3.7270009214958000  3.0871287090540003 16.4867857313183706
 11.2637627740606003  3.0873383744107503 16.4870054667309596
  3.7976117545490000 15.8688293111730001 20.7737493036111900
 11.3342843724674012 15.8688837746535008 20.7738439619150306
  3.8490978845088004  9.4501338891967510 25.1604316039144962
 11.3859022441180002  9.4500651433350011 25.1605267470260046
