Sr  O 
 1.0000000000000000
     8.5111609999999995    0.0000000000000000    0.0000000000000000
     8.5111609999999995    6.8331210000000002   -0.3149300000000000
     0.0000000000000000    0.0000000000000000   34.2018739999999966
 Sr  O  
  16  32
Cartesian
  9.9180714036130198  2.5408397389329602 12.6635058477853786
  9.8187761140297400  6.1203487871142297 16.0405746418159190
  5.5625359139406303  3.8836214031525005 14.1519790662762386
  5.3443874528005599  1.0061695508169000 11.1356108467573183
  7.4224763525830095  4.4227536250843507 10.9782624146953776
  7.2044081516911698  0.4671026535218100 14.3095642427441199
 11.4592952474044978  2.7038177378657400 16.1979517537264002
 11.3599191017917196  5.9573992139648109 12.5061677839774177
  9.8179124865230705  2.9494580514718201 19.7348474839578998
  9.5998457325285997  5.8269314281385700 22.7512266821032192
  5.6624000895251498  4.2922840626466501 21.2233111341407756
  5.5630265823722800  0.7127452220578200 17.8464578169362795
  7.2035424815058597  4.1293340111787602 17.6889049823848623
  7.1042568946461193  0.8757223326848700 21.3809085520805588
  3.1667688660608899  2.4103963473486902 22.9088095330851367
 11.4597865967290300  6.3660587985545103 19.5775047818228174
 11.6787162122256802  3.8818053645843302 13.9792988390861392
  2.9533950811302097  1.1517798744351901 11.2852790254493769
  6.8747550554017103  2.4343876401733198 12.5228342093167573
 15.8021959185723908  6.2568170781466206 16.2879862818594567
  5.4758984229965497  2.8402468751148002 16.4453706706186793
 14.4032036182608891  5.8508968917658200 12.3654522877143993
  9.8133792719512485  4.5683882746134001 11.1281220287872582
  1.0883253913111801  0.4652518343677500 14.1368534687861587
 11.8829341157106096  5.0348024911944602 14.9486818101090400
  3.6417978691501700  1.4999137914744001 12.6134219978397386
  7.4585577174103097  5.1427075164723304 15.2772965805209378
  7.6188269643975897  2.0037217160782803 11.2657171071536002
  5.3082856611868596  1.7261205722940600 15.4347210730137583
 13.6591695839314600  5.4203418692246101 11.1082941622696385
  9.3951990367524889  1.6183365615891001 15.1061578423211387
  9.1251740279780993  4.9163607250033801 12.4557388937391185
 11.1302854246634197  4.3987846082341804 21.3640335526603948
  3.0352557680746499  0.5763141032036699 17.5990478838609405
  7.4228327148940796  2.9513010808679403 19.9075558807861377
  7.2089237481597195  5.6813052516795599 22.6013930129411165
  5.5578066873309790  2.2648050881379902 22.7592027231490555
 13.8547689155645699  6.3678626741673003 19.7501766771010807
  9.7312894645526899  3.9928636018788604 17.4415013064006388
  1.6363960716515298  0.9821671200050399 21.5215798434867978
 11.8743089902648187  4.8293402457562795 22.6211902816864985
  3.2028743174738201  1.6904387660753701 18.6096972150303195
  7.8971700159288893  5.3333065621049407 21.2737130577973375
  7.6271237292520002  1.7982274233026099 18.9382622836829775
  4.8693212559377095  1.9166245692135599 21.4309271431977351
 13.6505465862759188  5.2148880968564706 18.7808131879335782
  9.4034979293971492  1.4128402872083401 22.7786942176929799
  9.5637638570316401  5.1069722752474203 18.4521910486800600
