Sn  O 
 1.0000000000000000
     6.8268870000000001    0.0000000000000000   -0.0471120000000000
    -0.1114070000000000    7.5563180000000001   -0.0407870000000000
     0.0000000000000000    0.0000000000000000   32.2057670000000016
 Sn  O  
  16  30
Cartesian
 -0.0871682000389200  5.6558076799455002 12.4783781559195006
  3.3796053564439199  2.3057316253032600 11.1752491567893113
 -0.0265359426872000  1.6975472407586001 12.1689838974679923
  3.3079582196597301  6.1793135469604001 10.8535726989783594
 -0.0624429288633100  4.0920455783191603 15.2631261612349896
  3.3967272185592803  0.9783500415119200 13.9584681846877210
 -0.0092657934047300  0.3835424555963000 15.3162148546103900
  3.3376412616372901  4.8024201717953998 13.8879523653062211
 -0.0389821759400000  2.7998373702437598 18.2032145041575042
  3.3087778545100401  7.2424582466097398 16.8577840504421701
 -0.0913045187396700  6.5320298521493401 18.2329735884757405
  3.3670161112812003  3.3945881326480198 16.8454117502380178
 -0.0218707400969500  1.4724035722950399 20.9866052258382041
  3.3335067650286998  5.6786437796996596 19.6426392417709721
 -0.0616165361444000  5.1551625462814403 21.2674854430434621
  3.3842738898002800  2.0806398687443601 19.9928257327271695
  3.3806719914964698  0.4246646937841000 11.9304883620894397
  1.9983920640762902  5.3930905980428401 12.3371788800466504
  5.3007693899256605  2.4240064394191800 10.7483270103339716
  4.6493034184496294  5.4079633965095200 12.3213964913167118
  1.4515342554770800  2.4466607341622599 10.7848072355098399
 -0.1032393498083300  7.3059536845110200 11.3570784554437001
  3.3920208599203998  2.8812056159840798 13.1128025692905616
  6.7545056401598105  3.6439309850697601 13.1324904041839794
  3.2924869271144601  6.6729393145815399 14.8008842303582906
  2.0259007108155802  4.0793536843536398 15.3432419890544907
  5.4958965569129896  1.0004629260703000 13.7757751959392714
  4.6781989690478598  4.1246607625762000 15.3415021469274091
  1.2956781568925799  1.0421968482002000 13.8265692589739100
 -0.0720825093340600  6.0144955165603005 14.4741131027746501
  3.4208705980691905  1.5254464310700999 15.9548107375014414
  6.7637584031520301  2.2527481591876803 16.1600079172601916
  3.3184221421906104  5.3200085350581396 17.6469941744656609
  2.0620431280855502  2.7359396339721602 18.3352649189549979
  5.3950337207245402  7.2097936440329802 16.7324634101728194
  4.6887544120164701  2.7776771075715199 18.3389521428790196
  1.2204237253674499  7.2551068428731202 16.7778453427855716
 -0.0461612856695100  4.6615367030971200 17.3202007535712106
  3.4301284987951202  0.1342253702189400 18.9822372830742196
  6.7926051354786106  0.8969428051707200 19.0019236075111628
  3.3495907991142797  4.0285221820412795 20.7639715689898203
  1.9062059502613298  1.3315120938996801 21.3769937620820585
  5.4239146205100601  5.9265262225415398 19.7525544806427895
  4.8838625801507405  1.3541673709641000 21.3663700004189678
  1.2479513557478101  5.9413927492642804 19.7838724468883420
 -0.0229198429798200  3.3534945329054398 20.2313573939025488
