Na Bi  O 
 1.0000000000000000
    10.6253449999999994    0.0000000000000000    0.9089110000000000
     2.8730259999999999   10.9062029999999996    1.1014459999999999
     0.0000000000000000    0.0000000000000000   31.7573830000000008
 Na  Bi  O  
   8  16  28
Cartesian
 11.7702585094479986  5.9801219475689997 20.7636952111999982
  3.0500252799459995  5.6699822528579995 17.0242930751640031
  8.2333996492879997  8.3522756310839998 21.3352213330569995
 10.1385114197859991  8.0421359363730005 18.5047301970210007
  3.3598595802139997  2.8640670636269996 15.2630098029789991
  5.2649713507120000  2.5539273689159998 12.4325186669430003
 10.4483457200540002  5.2362207471419993 16.7434469248360003
  1.7281124905519998  4.9260810524309999 13.0040447887999999
  7.2399932122539994 10.6514231917170008 18.8762574516849995
  7.4107636619939994  0.5128532898720001 19.3323287432360011
  4.4943419449919997  6.8239239674760004 20.4782987880250005
  2.7215447938819999  9.2056751096309988 18.6170313154850007
  8.5618801353520002  4.8165827743109997 19.7424830927359984
  6.7890829842419995  7.1983339164659998 17.8812156201959986
  0.9996352672400000  2.6032015940700002 17.9257396649850023
  4.0434239646609997  3.3708455984280001 19.4832571490710009
  9.4549470353389999  7.5353574015720000 14.2844828509290025
 12.4987357327600002  8.3030014059300008 15.8420003350149994
  6.7092880157580002  3.7078690835339998 15.8865243798039995
  4.9364908646479995  6.0896202256890000 14.0252569072640014
 10.7768262061179989  1.7005278903690000 15.1507086845149992
  9.0040290550079991  4.0822790325239993 13.2894412119750012
  6.0876073380059994 10.3933497101279997 14.4354112567640005
  6.2583777877459994  0.2547798082830000 14.8914825483150004
  8.3100969022070004 10.8442775793660005 20.8437191619459981
  6.2689417972159998  0.5519738400330000 17.1950262031600012
  9.2076141386339998  6.1893683583270001 21.1902669673799977
  7.8964679440109986  8.6293259058929994 19.0047345906629985
  2.5919197987320000  8.0129182185360008 20.3358702074470017
  4.8863825893099992  8.1366818101799989 18.8267637105710008
 11.1396065417349988  9.5430912180449994 20.0517511902270016
 10.7691633874989989  4.4791666658970000 19.2166742179939973
  6.3970423399239991  5.8855760737619995 19.5327506976500018
  8.6915051305019997  6.0093396654059994 18.0236442007739974
  3.3869569852229997  5.3929319780489999 19.3547798175580006
  2.0758030382810002  7.8329004318179996 17.1692476333759991
  2.1414493796990000  2.5640919501120001 20.0630423975959999
  2.9733202747080001  3.1779912107790000 17.5157954388099988
 10.5250507252919974  7.7282117892209996 16.2519445611900011
 11.3569216203009997  8.3421110498880005 13.7046976024039999
 11.4225679617190004  3.0733025681819996 16.5984923666240007
 10.1114140147769991  5.5132710219509997 14.4129601824419993
  4.8068658694980000  4.8968633345940002 15.7440957992260007
  7.1013286600759997  5.0206269262379992 14.2349893023499998
  2.7292076125009999  6.4270363341029997 14.5510657820060008
  2.3587644582650000  1.3631117819550000 13.7159888097730001
  8.6119884106899995  2.7695211898199998 14.9409762894290008
 10.9064512012680002  2.8932847814640001 13.4318697925530000
  5.6019030559890002  2.2768770941070002 14.7630054093369996
  4.2907568613659999  4.7168346416729996 12.5774730326200004
  7.2294292027839990 10.3542291599669998 16.5727137968400022
  5.1882740977929993  0.0619254206340000 12.9240208380540000
