Nb Pt  O 
 1.0000000000000000
     8.0604920000000000    0.0000000000000000    0.0000000000000000
     0.0000000000000000   13.9611820000000009   -5.0783820000000004
     0.0000000000000000    0.0000000000000000   35.5486739999999983
 Nb  Pt  O  
  30  18   8
Cartesian
  2.9533816794627197  5.9108475399686009 13.8723644755718993
  1.0767891967518399 12.8916052364816807 11.3328846172037370
  0.0502727243695600  9.3067727094632406 12.5417781155901000
  3.9799821421716399  2.3263112692322001 15.0807286034185779
  6.2667188962562799  0.1483459354592000 16.3653125924048410
  5.8240575522905598  7.1287028064370608 13.8263784569663972
  4.1338638664747602 11.7036996372514395 12.4244087345103615
 -0.1035404051466400  4.7231270660116804 14.9635293989196594
  1.0099442620401200  1.8341206875441600 16.4220386271830421
  3.0203694460926802  8.8146686871036000 13.8830609192270380
  7.1330676696492397 12.1444322339357011 14.0257458314415011
  4.9578478223845996  5.1637832950304006 16.5647559902584796
  3.9770286972979201  2.3699156705255202 17.6626533246236370
  0.0534375153435200  9.3504875437061798 15.1234614612986977
  2.0314126900975600  6.9805574931632002 16.3637226525682777
  1.9988243627563200 -0.0000125650638000 18.9028072096815585
  3.9768243638257199 11.5912354752622608 15.0639423672043158
  0.0531546726792400  4.6106274426202205 17.6033045086777200
  7.1329876289636802  1.8168312993671800 18.7015867843984758
  4.9574794579001997  8.7972024107506801 16.1625440223690582
  3.0201650320155600  5.1463961785794199 18.8445732509360973
  1.0099764234032000 12.1272263336270800 16.3050865875360600
 -0.1036435794442400  9.2380849505296201 17.7641841971379577
  4.1338234028049197  2.2574836192549403 20.3031574869016183
  6.2667880552776403 -0.1482043690737200 21.4401313456745406
  5.8239276171595193  6.8322637725246809 18.9013334124413355
  3.9799276532457202 11.6350336577617401 17.6470845289262357
  0.0503027093998000  4.6543632186361599 20.1862667433253797
  2.9534281885015599  8.0502569754713011 18.8555837417341188
  1.0769117162302402  1.0696997615317401 21.3942928540661406
  5.3648471315947202  4.4324464612270207 14.0879380334692179
  6.7259655085611998 11.4129944607864608 11.5488245295785390
  0.5292613354956400  7.0098232020952409 13.7945602608159561
  3.5010057829934000  0.0293754438225600 16.3334296976677180
  5.6684191243609598  9.8031353111683401 13.6136343703842009
  6.4224151179135207  2.8226187242684002 16.1522341451517590
  2.3388210740312001  4.1574802836779199 16.0262464958989206
  1.6914337119050800 11.1379587565510008 13.4868173705669356
  4.9488615828783997 -0.0002264503720400 18.9026973134950786
  7.1419054348928004  6.9805105835916805 16.3635598396413542
  1.6914077571208399  2.8230014002670201 19.2401115646878580
  2.3388359053364800  9.8034959284993999 16.7011902775558738
  6.4223840850193197 11.1385962241211196 16.5745793584801788
  5.6681935111898802  4.1582252523494398 19.1141748516064816
  3.5010818740378800 -0.0289962581194400 21.4720458279476993
  0.5291558236553600  6.9515058091512199 18.9330364816718379
  5.3647674133288401  9.5287331653720404 18.6394492765449016
  6.7258880472330800  2.5481508213048802 21.1785937585657784
  4.0409392098970391  7.2388677013626603 12.7314072355258201
 -0.0107771196187600  0.2581485377119000 15.2704496928523206
  0.1596023360804400  0.3075577192571800 17.7012972724526421
  3.8704697991071200  7.2878574890006602 15.1623007236994187
  3.8708733073366397  6.6731971850195002 17.5651085757087593
  0.1597053491682000 -0.3072864534909200 20.1042591010042173
 -0.0107232755322000 -0.2582549219187400 22.5350407124223580
  4.0410970343303996  6.7224174717723209 19.9959708318330591
