Ni  O 
 1.0000000000000000
     8.2826799999999992    0.0000000000000000    0.6026600000000000
     0.0000000000000000    8.2629699999999993    0.0000000000000000
     0.0000000000000000    0.0000000000000000   37.4417469999999994
 Ni  O  
  36  46
Cartesian
  2.7749939886367998  0.0510477197333000 22.1342973350959795
  6.8974137798859987  4.1275488516107997 22.4096544403921385
  0.9072899852883999  0.0126527554422000 19.8554976828341196
  5.0433597160043995  4.1635901088973997 20.1413503188080121
  4.5944817784207999  8.1720841056353990 24.3116568200017795
  0.4701433043495999  4.1182245031142992 23.9930421926714210
  4.8727793294600001  2.0739716744526997 22.0832903741463191
  0.7151285790431999  6.1733975902981992 21.9315230393559979
  2.9780227680027993  2.0976730949709999 19.9873022267709679
  7.1322814296523989  6.1973328528674996 20.2911091913405173
  2.6192816753067998  5.9593884851515995 24.1362547696299110
  6.9593397338667993  1.7466073458798999 24.3549404895927601
  4.8534109448943994  6.2185324113291998 22.2482808372189282
  0.7313443271203999  2.1385341426585995 21.8666538072820487
  2.9867405371831994  6.2219381596740995 20.0010130746405181
  7.1388885234883990  2.0898992927950002 20.2712238693593392
  2.4445988773583998  2.1731414441313999 24.1179287042515789
  6.7243113172815994  6.2448065075569996 24.4554462495571805
  5.5250569448199993  0.0494808127322000 15.9233092797242790
  1.3989485448595997  4.1280209150868998 15.6489444494452083
  3.6981744611587999  8.1716964897126996 13.7405293421882799
  7.8246804297591996  4.1178011085314994 14.0612748596809407
  7.3451919432191985  0.0132424009814000 18.1724250391718201
  3.2071707302683996  4.1574095725967997 17.8852509954448280
  3.4407018867899999  6.2228708837276994 15.7955344972379290
  7.5644776355819996  2.1346506293882999 16.1701764471454510
  5.8559751073403996  2.1669136436423999 13.9313073010064219
  1.5569395062843998  6.2516420494895000 13.5912170891906996
  5.2709725663587994  6.2172332245560993 18.0426428893080981
  1.1235192030776000  2.0872064735016997 17.7803380384236895
  3.4213768206407997  2.0567194193897000 15.9610455571658800
  7.5796205281187987  6.1773614196368998 16.1003478719653081
  5.6853515680331990  5.9665044722858998 13.9095751021590708
  1.3376823891676000  1.7537838179545999 13.6914689475507103
  5.2809280992383991  2.1037108471499999 18.0560626417035905
  1.1300708857844000  6.1990986495564995 17.7598410050932998
  4.6398041892468003  0.1046992665730000 22.3794835595623596
  0.4801236852692000  4.1396119615137996 21.9577655545352606
  2.8551385255455997  0.0274637986484000 20.2477543579045722
  6.9799663403511998  4.1438159953903995 20.5197450596937969
  6.3503392043335989  0.0089287174929000 24.7952402405601191
  2.2543488651767998  4.0605647547869994 24.5243780547391914
  0.9027406404716000  0.0386513642502000 21.8642425099688928
  5.0286331937911992  4.1069432354327002 22.1771734831245091
  7.2441340534443999  0.0091885878994000 20.0591001319612161
  3.0967425617827997  4.1604736471321999 19.7587529773154884
  2.7589241813811998  0.1253338031461000 24.0655007535059511
  6.8641895484287989  4.0965131362907998 24.3164684314720922
  2.8141544168499997  1.9299559571741998 22.1269179946864512
  6.9029790782315992  6.0074422829647993 22.3990949385078615
  5.0574041595195993  6.1114378750125997 20.1462882455291385
  0.9133887710527998  1.9900027122750998 19.8422699599723380
  0.5183253932724000  5.9900927727448989 23.9507271568888918
  4.6308789389323994  6.2905576635202998 24.3203568405935897
  0.5094036216836000  2.2423361333192999 23.9308306911804678
  2.7896056300783996  6.4318261085331994 22.1317990406805407
  6.8841956165275988  2.2353925117391999 22.3988555971620293
  5.0624511277507995  2.2008513966560996 20.0949622712129283
  0.9157202626459999  6.3026339941752996 19.8639345352709711
  7.3926594025115993  0.0349339366769000 16.2634895693922914
  3.2731108022843998  4.1186526075899996 15.9704165142263506
  5.5421995247891997  0.1287414519741000 13.9940518865953383
  1.4393247876699997  4.0942167742980997 13.7482933205215598
  0.9263794920183999  0.0087452795589000 17.8482301668691470
  5.0617779115203998  4.1636189466626998 18.1215901926345886
  3.6623687668259994  0.0917022758006000 15.6918587016392088
  7.8289576057111994  4.1365663134014996 16.1082036339357977
  1.9389288393383997  0.0139706991572000 13.2525729365668692
  6.0375284711755999  4.0581153625898994 13.5380756206222497
  5.4793840938031995  0.0268415970074000 17.8160331285329185
  1.3461983094364001  4.1403704195301003 17.5486828726587483
  5.4778095563351998  1.9262836454170997 15.9237006575923701
  1.3889139952127998  6.0058297643692988 15.6533150100224194
  7.7796369795955993  5.9862609856667994 14.0648885854180907
  3.2042057793087997  6.0320106542954992 17.8846971622692195
  7.3467117321723991  1.8905605951051998 18.1932854630251519
  3.2006775232823999  2.2778034447096998 17.9326567996966126
  7.3451029044091989  6.4039122259088996 18.1781763524304800
  5.5061636547791997  6.4344240689308991 15.9167032152138397
  1.4169852401348000  2.2376808586509997 15.6517002053144587
  3.6609754543963997  6.2896784008825994 13.7362415226736694
  7.7896374046007990  2.2391814966326997 14.1004254488439198
