Rb Sn  O 
 1.0000000000000000
    10.8075019999999995    0.0000000000000000   -6.2397140000000002
     0.0000000000000000   15.3609010000000001    0.0000000000000000
     0.0000000000000000    0.0000000000000000   37.4382840000000030
 Rb  Sn  O  
  24  24  36
Cartesian
  3.6369179853608196  2.3824786636711899 11.3142197518259007
  9.0407087569681792  2.3824960214893198  8.1943341739357827
  0.0056501620456000  0.0430274197911000 17.9990325809278424
  5.4094053769713799  0.0430254228739700 14.8791615415713387
  5.5849863240388000  7.7915832393367799 15.0577117688441611
  0.1812303525878800  7.7915853898629202 18.1775828705978029
  1.8105714075332600  4.8564672836967100 14.7274335360903414
  7.2143334311852998  4.8564678981327507 11.6075712947305814
  1.7036824028027397 12.7312302627755205 14.9539896893907009
  7.1074277829017003 12.7312168987916490 11.8341449192301411
  3.3031642750724797  9.9918786985767802 11.7667978765110810
  8.7069174365728799  9.9919174080472999  8.6469785643836410
  3.5187160117617600  2.4487013511903100 17.7185907567006034
  8.9224760900634390  2.4486830717181198 14.5987124168787226
 10.6318860366260992  0.2498659455903600 18.2210733651921046
  5.2281330912757396  0.2498662528083800 21.3408895574625426
  5.7866526902334998  7.8576186774727104 21.2775044211477820
  0.3829025548336600  7.8576031629626995 24.3974125868025844
  1.9175479530299799  5.3841449548487095 21.1519682391531845
  7.3212832821520788  5.3841265217675103 18.0321734491017622
  1.6684571873090801 12.8698868181331090 21.1324462331528018
  7.0722237501119594 12.8698508736247703 18.0125308294297639
  3.5849007217096798 10.1973616248627916 17.9598786251663967
  8.9886522620847806 10.1973593207276387 14.8399984758274623
 10.7704762546731398  3.5611159891308901 11.4526260927111796
  5.3667388721256595  3.5611193685291100 14.5724684917804197
  1.7893039727975799  1.4313074035276099 14.6066521409580208
  7.1930383292444997  1.4313011055582001 11.4868077451803003
  1.9106262883740799  8.4560501947208113 14.9770250287559197
  7.3143521068944191  8.4560546493821001 11.8571769515469434
  3.9069955149904603  6.2602275226339898 12.1685786143165409
  9.3107394901141589  6.2602892734560101  9.0487208031537207
  3.2259560211595799 13.8218176748311397 11.9751328793857823
  8.6296883241811191 13.8218474749790801  8.8552896691537235
 10.6832834900375389 11.8643794428822300 11.7032860116049839
  5.2795556180918197 11.8643387364945792 14.8231206734288641
 10.5852144876892194  3.9804735019192106 17.4961970542125016
  5.1814617584888998  3.9804429337262204 20.6160501855898239
  1.7515753075406397  1.7842898486588901 20.9413048246022448
  7.1553264156156597  1.7842910775309699 17.8214387770169402
  2.0113308081601198  8.8092728843437289 21.2315649636027608
  7.4150973709629993  8.8092667399833307 18.1117394117613202
  3.8301294265908798  6.6794122252860602 18.1505788859371648
  9.2338909098678190  6.6794100747599199 15.0307158334145843
  3.5700457021356597 13.7372763448244708 18.1015213185120594
  8.9737865430837793 13.7373086027165705 14.9816671887805022
 10.4133353262068393 11.7801456381135807 18.1833488655109221
  5.0095536329011594 11.7801388793171409 21.3032183449389230
  0.8924744368583200  2.6502996592224299 13.3452288756410002
  6.2961808018750594  2.6502959726061901 10.2254687783994207
  3.6613496405320602  2.4676639226477799 14.8594417990343004
  9.0651057200579999  2.4676760577595700 11.7395680142036412
  0.9554401323355399  2.2802629273649098 16.4225068784678214
  6.3592158815151203  2.2802031734600203 13.3026588012588416
  2.7791894512824600  7.2676104638969701 16.4261483755582240
  8.1829417481826994  7.2675908019436903 13.3062719076505402
  0.0373430535855800  7.5162923912382498 14.9668277761514208
  5.4411345817180798  7.5162919304112199 11.8469660963659233
  2.8364053395456397  7.5100766026486001 13.3337869872849204
  8.2401696327730996  7.5100951893388102 10.2139028445290201
  4.7135384226965797 13.1718497202920002 13.2746257005681834
 10.1172960152727995 13.1718617017947786 10.1547708844680802
  0.9307177553605001  2.9726454017452499 19.4639377867617789
  6.3344735106613799  2.9726452481362400 16.3441132332745838
  3.6372046003138601  2.7313073675630597 20.9616642002214206
  9.0409434959116197  2.7313001479395900 17.8418141887011004
  0.8227255208258200  2.7235680848122303 22.5682690055927004
  6.2264766289008397  2.7235387454913198 19.4484546228393214
  2.6546550380365397  7.5902070499331193 22.6391279465423843
  8.0583849634076401  7.5902147303836198 19.5193815766716021
  0.0217596083767600  7.9606136722867209 21.0451978098221630
  5.4255014220000595  7.9606241176994006 17.9253749410577434
  2.7287936371563801  7.7729069950739493 19.4840004639802622
  8.1325465825067393  7.7728851825945311 16.3640985380394639
  4.6273893385291203 12.4280693639476389 19.3647816804249615
 10.0311542802066995 12.4280501628213909 16.2449200006394605
  1.7810999980293798 12.6787898364606306 18.1416904757412993
  7.1848596440309791 12.6787730930785401 15.0218161293363792
  4.3501408151724394 12.9238594943227501 16.3512977023713226
  9.7539000288739590 12.9239088028149602 13.2313981475218387
  2.0392934903848001 12.3042053562530498 12.1854922950706417
  7.4430250368811999 12.3042259398603910  9.0656401620475595
  4.2340684598424803 13.2977917506738699 22.2248323391614022
  9.6378562053492782 13.2978186322506211 19.1050005476059610
