Ti Bi  O 
 1.0000000000000000
    10.3195259999999998    0.0000000000000000  -10.3195259999999998
     0.0000000000000000   10.3195259999999998  -10.3195259999999998
     0.0000000000000000    0.0000000000000000   61.9171559999999985
 Ti  Bi  O  
   2  24  40
Cartesian
  5.3870419949434201  5.3874096796547999 23.4475115168763040
  0.1695869624736000  0.1660443723930600 38.8651114224008936
  6.7675798244073597  5.2262710035316200 20.3046856326304237
  5.2258625566925403  2.2462162412268603 24.8269399972952343
  2.2454296869551400  6.7672030585130996 23.2869018196558812
  0.1005813240642000  3.3311306093687998 30.1655864079612002
  3.3311237984816402  1.7871273602544600 28.4793530534087438
  1.7868113763683400  0.1002319049138400 31.7097882047557746
  8.0657515315402186 10.2504495696422406 14.8317520556885398
  7.0915996286188197  8.0666551092367804 17.9892402320610003
 10.2428379904599005  7.0943797089232197 15.8039388112737562
  3.3129005475182400  5.0880999804503402 26.4418530437564989
  8.3822886474490801  3.3144196849406997 23.1466863952787456
  5.0864559767632800  8.3816996089050004 21.3731748240191983
  1.4433804405556201 10.2777927017081385 25.5510012834644371
 10.2823387624969200  7.4888989029325801 19.5003671224634978
  7.4880910904373001  1.4430040874423999 28.3410996805099771
  8.4783810808985400  7.2507207342137390 23.2381395826196382
  7.2510137055568791  5.1803460169738198 26.5381082161309791
  5.1840671348541605  8.4752020477189802 25.3075487018117329
  3.1766435901194399  5.0835640327970397 30.2124314834571628
  1.8299015891339399  3.1749740972031599 33.4660328355263417
  5.0858134830745199  1.8297797155318798 31.5548515637586036
  8.7109721550457202 10.1316856535470787 21.3220397151745189
  3.2805169461728996  8.7092280519564600 28.1951715729297590
 10.1306864138445007  3.2619869988967798 26.7698136685568358
  1.5525542147484599  1.5529006412362800 29.9315706200544653
  1.4320189520153999  5.3877581700478201 25.6039942165748968
  5.3849003837126403  7.5440602780414192 19.4916510444133806
  7.5433720688524799  1.4332769022348000 23.4450902464909205
  6.3823618255723202  0.7492879866477600 26.1932755791016767
  0.7481004155956801  8.1345810156407996 24.4416836098234853
  8.1340354223011797  6.3832194813781795 18.8069522486328040
  4.1762115568214995  4.3502590312133398 24.3438974325716444
  6.2856045050626799  4.1778198549485994 22.4093435695617558
  4.3504920461104195  6.2854660170237597 22.2362327985449362
  8.1790659123452993  8.1840699536979606 15.9220122478842612
  8.4742326314465402  4.0159366250245201 20.7991859670718178
  2.7401080332200398  8.4738612317058006 22.0760385654412765
  4.0152006364301993  2.7396622296968403 26.5334577217390830
  3.8314325813273999  0.1987625327713200 30.9855132012031156
  0.1989906974911800  2.6078009775930000 32.2104119395350637
  2.6075184289711202  3.8321929240030799 28.5788166696118822
  7.0225378519879804  6.8022559084535992 21.7614712406553039
  3.7046037492727200  7.0214845379691599 24.8611933935565190
  6.8005861059515400  3.7048917672433799 25.0809691643406012
  6.5475477165974389  6.5510668813539592 24.6080120787673238
  6.7014085470091196  0.1158397752078000 31.0358867290290021
  0.1139635821857400  2.6566519625528402 35.0792632832732991
  2.6622495830410200  6.7050156341271592 28.4898659673259864
  1.1431261951363800  5.1649544439448203 30.8109386054231997
  2.4349331282182201  1.1434893392563199 33.5411849900118639
  5.1637892662641605  2.4336691926737402 29.5225112139111019
  8.7972012887396396  9.1341616753598398 18.9167476710718816
  0.8410559195316599  8.8022907757675792 27.1920028140205225
  9.1334632498401600  0.8598713048969401 26.8558540581202188
  3.3927397275177000  3.3941544313370402 31.7711008429227029
  3.3887751720190198  9.6319803565817992 26.1158596301975372
  8.0482336201789195  3.3903183539370598 27.7007448167087347
  9.6411813491586607  8.0494353289816196 21.4477897439811613
  9.2480207207472009  5.1543576322811999 25.9410659508806454
  5.1662715250481996  7.8817357046181593 27.3073579842873571
  7.8825452714328597  9.2483913981211199 23.2137948920283002
  1.4411635999803001  1.0553578009442999 37.8581243356764006
  1.0562635457413201  9.4787367370201796 29.8185191807718581
  9.4790757334492799  1.4391195082702202 29.4324190688543368
