Sr Si  O 
 1.0000000000000000
    10.1533230000000003    0.0000000000000000    0.0413680000000000
     0.0584970000000000   14.3583949999999998    0.0011450000000000
     0.0000000000000000    0.0000000000000000   43.0755430000000032
 Sr  Si  O  
  48  16  16
Cartesian
  7.7173707077477998  0.6761959771374000 28.2449318127311031
  2.7599422850629498  3.7138884631347997 17.6105973063132417
  2.8526025356410800 10.9375177292944006 24.8083048875084842
  7.9264569404106000  7.5332894483431501 21.2432232113158506
  5.0853388201116907  1.7783707866089000 23.6120655445764704
  0.0040649631937500  5.3731484661014504 27.0973065965233602
  0.0452993171223300 12.5531829169459996 20.0087743712844812
  5.1362613693226500  9.0007215812777002 16.2893130005209912
  5.1108305411004906  8.6278149664623509 23.2879833315582125
  0.0443736879851100 12.3646860509699508 26.9077023422256332
  0.0175741872813000  5.0379056443785002 19.7046589192208721
  5.1086030633283599  1.5425688960498001 16.1134209506685195
  2.3802242002150202  3.7656638304171501 24.8014957816735304
  7.5635388834443100  7.8461548550425499 28.2294397056450386
  7.4249900862992408  0.3500313942371500 21.2633260646046409
  2.4861537263944502 10.9026396084159494 17.6238573209998215
  7.7256682954956002  3.4557532378247999 25.4942004101237529
  2.6482832622078298  6.5122434473882995 14.8886141495284416
  2.7868357622651696 14.0083536984702999 21.8547247895335914
  7.8315929065471197 10.5927188213631513 18.3165726976661993
  5.1032073179234096 12.8158327088119002 27.0046225186511144
  0.0141255609551700  1.9937126822127498 16.1689947130370619
  0.0409197801761100  9.3204926580523502 23.3720458680938492
  5.1009934239602108  5.7305813257931995 19.8300886226292725
  5.0755587351354299  5.3576741366420499 26.8287417076836512
  0.0544257557852700  8.9852499799133501 15.9793964545433322
  0.0131945224782000  1.8052089242070999 23.0679243845252913
  5.1264788457939598 12.5800245005590003 19.5060076761489931
  2.2853561272512000  6.8250986596272503 21.8748228526294213
  7.4518715003511007 10.6445013678430005 25.5074599603063739
  7.3592027157169202  3.4208708094278499 18.3097661284327202
  2.4944407529314199 13.6821964383514985 14.8731280291125501
  2.5746505163991000  2.8808950794146999 28.1942092421625361
  7.7607457736958301  7.0518737144177495 17.6495452559018950
  7.8467356765897511 14.1783525005839000 24.8398751452230435
  2.7293895640462500 10.3960003384101007 21.1978068637676706
  7.5877748491770305  4.2857636649836497 14.9279107405435223
  2.4044445166201500  7.3446355015257998 18.2711929513969906
  2.3770774524222302  0.1010460561409000 25.4201613903055694
  7.3979481554655910 11.1007307539309998 21.8841885917568497
  2.8138636852744501  3.2576801838874498 21.2338617761854316
  7.8073711256405405  7.0137615086495000 24.8468789689259815
  7.8347380935699604 14.2573522462899493 17.6978976070438740
  2.6240427350843700 10.0726365040385506 28.1901418038969211
  7.4824299335523303  3.9623959538454496 21.9202357808486497
  2.4510679493779799  7.3065257366846987 25.4685003806745840
  2.3650884356318400  0.1800549912197500 18.2781907796952012
  7.6371638000799003 11.4775004949211006 14.9238523345377807
  5.1983544942509399 12.6783838138274998 23.5115508409105516
  0.0287693309218200  1.8311318577079998 26.6710613643243306
  0.1356614615685300  9.0344666812066983 19.7054260084839719
  5.1565064818653301  5.4918218930319993 16.4717013600068327
  5.1288163368778195  1.7884324319051501 26.8017852565746324
  0.0766617015500400  5.3678579718797499 16.3232439786225036
  0.1437242576234100 12.5875870672055008 23.3793124161555994
  5.2396129751740199  9.0160527575389509 19.7237087301280631
  4.9722023490326706  5.3423409502054993 23.3943420816744521
 10.1351585167256424  8.9905407613029489 26.7948124532579897
 10.0680917790707998  1.7708070712907999 19.7387414138650286
  5.0829964530929104 12.5699622809269496 16.3162676987431787
  5.0553114781105499  8.8665708096248004 26.6463554930472313
 10.1830485152364592 12.5272578296858494 16.4469855807007121
 10.0761674575615210  5.3239244420266498 23.4126227047684132
  5.0134694895287994  1.6800170731144501 19.6065025911598418
  2.5577690962541704  1.7077737172407998 23.2941290329842197
  7.6459939642119608  5.7429852560657997 26.9536293929933208
  7.6540490480691306 12.6506143907296007 19.8239204976884906
  2.5658297942724597  8.6154101746860494 16.1644223147928905
  7.6450613221186812  5.4692787821301492 19.8203078656675942
  2.5667583609972597  8.8891132026069002 23.2977390869868941
  2.5411016165675702  1.4353309256491000 16.1502993803595203
  7.6707124345047308 12.9230742688113498 26.9677531500028742
  7.6095701469156305  1.8834884528199500 23.3382377777488905
  2.5079023702451102  5.0129361083055999 26.9299197409385656
  2.6022473100738597 12.4749053985084508 19.7798113197306336
  7.7039193283262097  9.3454521432487496 16.1881280812026809
  2.5570329671309699  5.2958957063150498 19.7864871471493728
  7.6547850203385002  9.0625037447873993 23.3315567837799414
  7.6212531620100901  2.1722811487981497 16.1957402051488693
  2.5905647151516003 12.1861161485450502 26.9223041559504424
