Na Bi  O 
 1.0000000000000000
    16.5057429999999989    0.0000000000000000   -0.0329180000000000
     6.7928709999999999    9.9147920000000003   -1.8982010000000000
     0.0000000000000000    0.0000000000000000   37.7889389999999992
 Na  Bi  O  
  24  24  48
Cartesian
 16.2767451298716992  0.5980713580070400 16.5553840305850599
 19.6691427263735505  5.5535126567642408 15.6077405056560998
 12.7836808830424893  3.7474722188455201 21.8108147861636184
 16.1792396185457612  8.7061178792292004 20.8617037150468398
  6.2076296298076095  2.0579442693397603 19.2845871802196598
  9.6044215091855492  7.0174967365997603 18.3358862521448778
  3.8526847442096797  4.6034561688172806 18.8214678043094210
  7.2478168870938600  9.5575616476483205 17.8719917083022999
 13.8514448905443981  2.8684492667033603 15.7987041429919000
 17.2460863396569977  7.8254532358276796 14.8479989986873306
  7.2754905090602593  1.0530189258731200 22.2878674619033887
 10.6724316950101183  6.0073535355472796 21.3412720907022617
 11.1157502811512003  1.1822145153604000 17.8373787538438116
 14.5105422355928297  6.1385730315255200 16.8904675736522023
  7.6866673468730697  4.7326155693137606 14.3696486731208104
 11.0924500022722583  9.6877678518841606 13.4216838438555097
 17.6198482958138278  2.9159797880721601 20.8278433172981003
 21.0186700687148900  7.8743120418807209 19.8803505303457086
  2.1807189143728598  2.0405735537557601 14.8479322301340382
  5.5764893613262698  6.9906598733537599 13.8988360412652199
 11.8002672059931690  0.2295227748477600 21.0192460455188481
 15.1955376166022997  5.1868853619987201 20.0686687371897250
  8.7603232123050194  3.7236534182843202 17.3792408421221616
 12.1548893506056608  8.6824858733492807 16.4227334468267969
  5.3124386999484194  2.9280633416742399 15.9987539616176893
  8.7053304783619190  7.8827850248280802 15.0442707790417209
 15.1431453028568299  1.2050000954472799 22.6601137222762397
 18.5366374028724081  6.1611133196583197 21.7091909613796901
 12.1161738322476094  4.4508862588941600 18.6202304643013292
 15.5141017349043508  9.4110758506880803 17.6689370334911899
 14.4055268954025895  1.9783844090066400 19.3894938377492103
 17.7986512216029276  6.9344086975334402 18.4390266894642636
  7.7422809445454090  0.5982333657083201 16.2765710806692603
 11.1402151662035500  5.5573348090802401 15.3263502225964601
  4.2698213836607897  3.7745728155587202 22.0048516823118199
  7.6681174261163800  8.7320606265326397 21.0574947633224809
 17.0662397779152180  3.8051774980605599 17.2390929751065798
 20.4630060258991477  8.7631010641428801 16.2889267814461824
 10.6958365927598980  2.0095955793351199 14.6527445661221396
 14.0923847116644794  6.9655755487416799 13.7034969515497700
  3.8272113015752796  0.2261191259020800 21.3334378041946628
  7.2232405176233794  5.1864204574018400 20.3841331347278221
 16.3287513471740802  4.5798178174704800 13.9682665819150902
 19.7263016795044805  9.5385586598573600 13.0192883808588284
  9.6560501084750090  2.8559984692055997 20.6636470271209198
 13.0537520522694592  7.8119633681283203 19.7135822234675686
  2.8478669176880098  1.3275873769186399 18.0388932506867086
  6.2462739754372496  6.2900075986167199 17.0923946410277381
  2.6384121726960403  3.4816010233424004 16.9274364486445918
  6.0369041260340603  8.4404020485167202 15.9767145743145491
 12.6738347855954583  1.6985401979899999 14.0734882536198782
 16.0688214944158290  6.6564815115500000 13.1232387218733990
  5.7854990891325491  0.1127288054899200 20.5694370371326407
  9.1798096671283904  5.0694632905676809 19.6186715444359017
 16.3819910260019981  2.7636554675468799 15.5019215349389690
 19.7751856271990292  7.7213608090572805 14.5532081825447577
  9.4195055699500987  0.6176726043472800 21.3156603645475080
 12.8149502920962579  5.5740190244661596 20.3675016352506617
  6.2659905909058198  4.4975324799644802 18.6101309368773897
  9.6596380757889904  9.4524520623666408 17.6618116838170494
 13.9061698366965398  0.5375542437808000 16.5421870170255687
 17.3020085362777998  5.4947672167204802 15.5919654006419304
 10.5585203793136291  3.8130654091320002 22.2364160732749276
 13.9549302935449191  8.7704132232428798 21.2857633447592072
  3.8224476673677001  2.6486015441850403 20.2889804835537610
  7.2198762561681189  7.6047543284161607 19.3426038550336088
 14.3321487160350003  5.0499015050995997 14.7034408631865894
 10.9348062157265407  0.0920790698956800 15.6500882153108094
  7.4862137369431894  3.0997373702667201 21.1011350435899594
 10.8822949016167794  8.0570153842419199 20.1505774848924872
 17.3077978514067397  1.7986823733317601 18.5051935073283076
 20.7025427233635497  6.7545406882404802 17.5518936756621500
 14.1672029129826296  3.9862803946971201 18.1261149684633338
 17.5644427114314183  8.9450283757342408 17.1769055172374294
  7.4829753425547896  2.6830706160168001 15.5591233123948189
 10.8790980567313298  7.6382063408845600 14.6086981623789711
  0.6360142525124201  0.7336991688043201 21.9576865172697673
  4.0305619465827895  5.6914294955905600 21.0080636950521864
 14.1708888975889096  0.2895392912259200 21.0357464036323094
 17.5656744356394903  5.2457872574602407 20.0844587512948181
 11.1437026426177610  3.1365097474279997 16.3690375302299493
 14.5398727867944011  8.0912449146989598 15.4213283609120388
  4.4099765139551295  1.9712177990532000 14.4263116350665896
  7.8038672792351198  6.9271894400344802 13.4700255334726009
 15.0930428430575176  3.0201185169212001 21.1266403668715270
 18.4869553575766972  7.9775548701246395 20.1752075399226491
  8.7009433545684285  1.2881889679482401 18.0481995706089009
 12.0974913463369500  6.2444113540192001 17.0990846181878062
  5.5480201886114697  5.1683296304748803 15.3461375183856585
  2.1486115587022301  0.2085317721128800 16.2899603653385476
 18.7990941578993400  4.0850114968414397 22.5536387736476414
 22.1968630484023208  9.0424653992267192 21.6051825134689501
 12.3254752754465713  2.3000775689844000 19.7343644838954013
 15.7210674422111794  7.2585303866636801 18.7850175443703371
  5.7850855414661089  0.7135284168116001 17.0423649788485179
  9.1821447935868594  5.6724168904513599 16.0904420106970178
