 K Ti  O 
 1.0000000000000000
    11.0267479999999995    0.0000000000000000    0.0000000000000000
     0.0000000000000000   11.5815169999999998   -1.8006279999999999
     0.0000000000000000    0.0000000000000000   37.1596890000000002
 K   Ti  O  
  32  16  48
Cartesian
  4.1350363441764397  3.0376028266937403 20.0840375648480993
  9.6484061540121999  3.0376051429971400 20.0840379479162792
  4.1350338080244002  8.9387880800943211 16.3933824513011004
  9.6484007509056795  8.9387895856915307 16.3933740420878813
  4.1350267509056797  8.6825147040368886 23.1122100256404828
  9.6483796898170002  8.6825130826245100 23.1122073049532801
  4.1350292870577201  2.5948051816355302 13.8231194796289110
  9.6484029562552784  2.5948003173983900 13.8231146619393197
  4.1350238839511997  7.2061910522212598 13.5598491165299215
  9.6484138727357998  7.2061908205909200 13.5598439501860213
  4.1350284049178798  1.4132338012188099 23.5770475388195209
  9.6484070361520402  1.4132354226311901 23.5770458003440382
  4.1350289562552804  1.0809777982098199 17.4920682924339808
  9.6484005303707185  1.0809766400581200 17.4920643849309876
  4.1350296178601598  7.0518642111866701 19.6667309621808002
  9.6484100133739990  7.0518682647176201 19.6667340479299000
  1.3783502263162801  8.6897612592237898 11.3465190656836796
  6.8917335990520794  8.6897672816126299 11.3465218453260199
  1.3783446026748001  3.1959445164115499 22.4361680771916596
  6.8917193745471597  3.1959389572833898 22.4361659687179795
  1.3783385379633999  2.7531688762356401 16.1754022698761801
  6.8917150741154396  2.7531598426523800 16.1754103631100428
  1.3783447129422799  8.4334460738899892 18.0653891851884723
  6.8917182718723602  8.4334555707339298 18.0654133488589181
  1.3783472490943198  4.7098344400290602 18.7673488898291403
  6.8917198156170789  4.7098289967160705 18.7673586544496587
  1.3783400817081199 10.3203401782989506 14.7919813872576498
  6.8917165075926796 10.3203327661280699 14.7919758509155503
  1.3783432794650399 10.1660824789208490 20.8988595435002793
  6.8917138611731596 10.1661081898885897 20.8988581472843507
  1.3783471388268398  4.3774992194437905 12.6823009516170995
  6.8917149638479591  4.3775002617803205 12.6823059919170387
  1.3783538651431200  0.4910258614102900 20.0411125701568018
  6.8917088991365594  0.4910430020554500 20.0411002437082217
  1.3783505571187200  6.1617799250810492 15.3467639472219695
  6.8917031652276002  6.1617734394315304 15.3467891093715014
  1.3783397509056798  6.3575384850314398 21.7275283155917691
  6.8917204772219600  6.3575347789460004 21.7275456136527829
  1.3783292754950800  0.4182633594454100 13.8077503075145298
  6.8917395534959995  0.4182714665073100 13.8077520198500494
  4.1349828644486397  5.2996741519288602 16.2183038519440323
  9.6484522458188398  5.2996768156777696 16.2182974922493486
  4.1350396522008399 11.0147992077148498 12.7311867192224693
  9.6483976634162403 11.0147887843495500 12.7311939137410217
  4.1350718503049997 11.2106082630793598 19.1119989763876887
  9.6483667885218392 11.2106094212310605 19.1119913643870944
  4.1350228915438798  5.3725269897263397 22.4516725075168537
  9.6484100133739990  5.3725271055415096 22.4516784350608098
  1.3783418459877999  1.7921650549653501 18.8405513459406215
  6.8917159562552790  1.7921726987665698 18.8405579610608278
  1.3783432794650399  7.3114765385952003 13.9618370877450015
  6.8917198156170789  7.3114932159796799 13.9618612498167618
  1.3783512187235998  7.6609512461887705 20.4852600785923684
  6.8917237852463593  7.6609646807484895 20.4852925483746624
  1.3783436102674800  1.9363874856781198 12.8778463566854704
  6.8917112147536397  1.9363840112230200 12.8778584163774603
  4.1350351312341598  3.9986192718175597 17.4188296717749687
  9.6484040589300797  3.9986188085568801 17.4188319733814296
  4.1350209067292401  9.7113337506551698 13.9735166590314286
  9.6484005303707185  9.7113303920152401 13.9735075196944099
  4.1350255379633998 10.0607558781615598 20.4969232993351795
  9.6484078080243982 10.0607535618581601 20.4969154843292003
  4.1350254276959202  3.8542560098580703 23.3815167957993708
  9.6484153062130407  3.8542550833367102 23.3815154534620468
  2.7527024846101997  5.0648887750677201 21.0515178291868708
  8.2660705301662798  5.0648923653379896 21.0515172709921927
  2.7574507125664800 10.7411889955994404 17.7727647775769739
  8.2708570209381200 10.7411835522864507 17.7727737990037120
  2.7412979602237200 10.7040797304583801 11.4622507749743701
  8.2546623669529602 10.7040841314348398 11.4622448883792689
  2.7681607723639194  4.8694008751696201 14.8455157595531695
  8.2815127188679192  4.8694116459804304 14.8455144565660184
 11.0113086782528384  6.6682168479025599 22.9965115277271686
  5.4979409634991994  6.6682007495939297 22.9965318672508090
  0.0114451028191200  0.9213663109681300 21.4138300202090761
  5.5248003573475204  0.9213591304275900 21.4138389401331324
 -0.0039196781115600  0.7259147770334100 15.2078750633618398
  5.5094404281859592  0.7259092179052501 15.2078807584228493
  0.0007723134299200  6.6309986006865298 16.6859159958582026
  5.5141799450113194  6.6310084449759792 16.6859282144093299
  0.0039943291955200  5.0648849531671098 21.0515173086034402
  5.5173683291955191  5.0648890066980599 21.0515196511587597
  5.5125844848431997 10.7411848262533205 17.7727765737097485
 -0.0007703286152800 10.7411877216325706 17.7727631176616008
  0.0154093289926000 10.7040701177992688 11.4622500399142684
  5.5287652451258795 10.7040644428559393 11.4622628133224698
  5.5019260302264001  4.8694159311417193 14.8455100743647588
 11.0152663986450001  4.8694031914730198 14.8455146562337905
  2.7721161771389999  6.6682000547029103 22.9965256581413584
  8.2854827892178395  6.6681851145459801 22.9965443312146398
  2.7452369351442800  0.9213731440631600 21.4138270998541103
  8.2586451180630789  0.9213583197214000 21.4138368365957454
  2.7606096553335200  0.7259048169287899 15.2078743823205791
  8.2739774803546400  0.7259114183934801 15.2078807879004181
  2.7559104964058401  6.6310012644354392 16.6859133521324203
  8.2692623326423593  6.6310076342697908 16.6859313132284122
