 Y Sb  O 
 1.0000000000000000
    10.8977719999999998    0.0000000000000000    0.0000000000000000
     0.0000000000000000   10.8977719999999998    0.0000000000000000
     0.0000000000000000    0.0000000000000000   32.6933160000000029
 Y   Sb  O  
  12  20  48
Cartesian
 -0.0300606322402400  2.6715241820120399 14.8197555812660404
  5.2117575648317995  2.7598974844916397 20.5459343000288435
  2.7598957408481199  5.2117589815421592 20.5459343000288435
  2.6715262525887198 -0.0300630297500800 14.8197539466002421
  5.4489954136308807  0.0000046860419600 12.2358730253215207
  0.0000041411533600  5.4489938879427999 12.2358726983883610
  5.6859273619699202  8.1379300941455597 20.5458721827284414
  0.0300257593698400  8.2262041179222400 14.8199429139667220
  8.2262056436103208  0.0300233618600000 14.8199448755656817
  8.1379295492569597  5.6859273619699202 20.5458718557952800
  0.0000856564879200  5.4488416460679598 17.7293041042824022
  5.4488417550456800  0.0000866372874000 17.7293044312155637
  2.7594415217111603  2.7594411947779998 12.1386110640878417
  2.6432649514833999  2.6432638617061999 17.8336023209856016
  7.9823066406539605  2.9154741865413598 12.0326932205100015
  2.9154722249424001  7.9823088202083605 12.0326958359752805
  0.3737521680664000  7.8087026262063999 20.3484042271552816
 -0.3730394537776000  3.0884638935812800 20.3480714091984005
  7.8087031710949999  0.3737521680664000 20.3484042271552816
  3.0884620409600396 -0.3730379280895200 20.3480704283989233
  0.0000589569465200  0.0000559055703600 17.2065170577201627
 -0.0003164712988800 -0.0003162533434400 12.4541705463846011
  8.2545670952403203  8.2545660054631202 17.8334591242615197
  8.1382037372004792  8.1382033012896002 12.1386303531442810
  2.7953420520107599  8.1024955525766806 17.3975784310899613
  8.1024966423538789  2.7953409622335599 17.3975777772236420
  5.3874449063525995  2.3291165127052000 15.0265110540484805
  5.5102012243808005  8.5686072101648403 15.0264221282289601
  2.3291162947497601  5.3874431627090802 15.0265110540484805
  8.5686071011871210  5.5101991538041197 15.0264218012958004
  5.4479910749633600  5.4479921647405600 12.9609090979887611
  5.4488864359108797  5.4488869807994798 18.2853386185508420
  3.7555973791695201  3.7555983599689995 21.6038327924858429
  1.1109690074312000  1.1109661740104799 15.9963049830834017
  9.7612982828908805  1.1363329178948800 13.6377928201854015
  4.3924934706556797  1.0345714845578400 13.9767427354143621
  1.1363344435829601  9.7612968661805208 13.6377902047201207
  1.3769747947558799  6.6437061704416793 21.4698156976723205
  1.0151871815905600  4.2683876815207205 19.4663617737296448
  9.5203664163169588  4.2547329911601599 21.4701799012125605
  1.0345709396692400  4.3924927078116394 13.9767420815480428
  4.2547332091156003  9.5203648906288798 21.4701808820120448
  4.2683870276544003  1.0151881623900398 19.4663621006628027
  6.6437036639541205  1.3769769743102800 21.4698166784718012
  1.5275681636254399  1.5275675097591199 13.2405347028036022
  3.9197798338121999  3.9197814684780004 18.7265208598449640
  1.5113674267925199  9.3863277439148796 16.5064426587520821
  1.2861707442316801  3.7821575380656398 11.2727462442184798
  9.3863302504024393  1.5113650292826799 16.5064452742173593
  3.9849070988385997  9.1657868075078799 13.2446543875527603
  9.6118183393865593  7.1156420332975197 11.2728113039173206
  1.4529928572082000  7.2726867742133603 18.6766615913460008
  3.7821587368205596  1.2861704172985200 11.2727468980848009
  7.2726861203470392  1.4529935110745200 18.6766619182791622
  7.1156429051192802  9.6118183393865593 11.2728109769841609
  9.1657856087529606  3.9849076437272002 13.2446520990206409
  9.7867937294626000  9.7867913319527595 15.9963818123760007
  7.1421555497294795  7.1421559856403602 21.6037177120135233
  4.4062686903745600  6.4915996459299201 19.6265322136105240
  9.8826182745694808  6.6293520610741599 19.4663532734674796
  6.4915987741081596  4.4062695621963197 19.6265315597442012
  6.6022822133815993  1.1276560028507601 16.0347846890822403
  6.5052250212837999  9.8633116727165593 13.9767299850211213
  4.2955471088991199  9.7701673256553594 16.0347474187020005
  6.6293510802746800  9.8826187104803598 19.4663539273337989
  9.7701673256553594  4.2955453652555997 16.0347464379025233
  9.8633110188502400  6.5052238225288805 13.9767299850211213
  1.1276557848953199  6.6022805787158001 16.0347856698817210
  6.9781157469222794  6.9781168366994804 18.7264626657424813
  9.3703200066240804  9.3703190258245996 13.2404699700379211
  6.5535344086489191  4.3444679702511602 11.7736568853124819
  6.8798394210708400  9.1084433851102009 16.5845290093522806
  4.3444656817190399  6.5535362612701604 11.7736585199782802
  9.4447408916120796  3.6251721900072003 18.6765559919353237
  4.0181034559941198  1.7894390093201600 16.5845152781595608
  6.9127619172159998  1.7320081867910397 13.2445778851933209
  9.1084425132884395  6.8798362607169601 16.5845303170849192
  1.7320070970138401  6.9127623531268796 13.2445798467922824
  1.7894382464761198  4.0181001866625197 16.5845133165606029
  3.6251714271631599  9.4447416544561200 18.6765556650021622
