Cs Nb  O 
 1.0000000000000000
    10.4122319999999995    0.0000000000000000    0.0000000000000000
    -0.5014930000000000    9.4015670000000000    0.0000000000000000
     0.0000000000000000    0.0000000000000000   48.5893950000000032
 Cs  Nb  O  
  16  16  48
Cartesian
  0.7343025850330299  0.1196199915834700 18.4521803691972011
  5.9404200164796492  0.1196224359908900 18.4521793974093029
  4.3714977359324800  4.8588020296345595 26.6650752572707503
  9.5776126507661186  4.8588009014465205 26.6650762290586485
  4.6222437124382800  0.1580068716914800 21.9243192568353003
  9.8283604312646595  0.1580070597228200 21.9243216863050527
  0.4835552919830600  4.8204359269896200 30.1372044270298538
  5.6896699909246200  4.8204310381747799 30.1372039411359012
  2.5186516923541200  0.5751807238690800 32.4796291912510497
  7.7247683784584096  0.5751776213519700 32.4796301630389479
  1.9771453366255298  2.8417893753762100 24.2096096950518032
  7.1832601222622001  2.8417887172665197 24.2096077514759997
  1.7263957451778400  7.5425605593234399 24.3797668409780997
  6.9325094344270797  7.5425609353861196 24.3797668409780997
  2.2679107524701902  5.2758541315195098 16.1097351974301013
  7.4740257236592704  5.2758499948300299 16.1097332538543014
  2.6009150750587899  3.0369111891762701 20.3201641897138501
  7.8070323245266300  3.0369111891762701 20.3201641897138501
  2.3797821818861000  1.8155522099712200 28.4360338302756013
  7.5858985243426398  1.8155516458771999 28.4360338302756013
  2.1290382868263400  6.5163161547118600 20.1533631133002018
  7.3351548915005393  6.5163165307745397 20.1533640850881000
  2.3501728216317699  7.7376990138970898 28.2692312961800987
  7.5562868633674105  7.7376986378344093 28.2692317820740513
 -0.0232805334065400  4.2037555581945005 18.6099219529131013
  5.1828347728417290  4.2037549000848102 18.6099229247010030
  4.9934163510874496  0.5895642752380500 26.6473270089591026
 10.1995313148791809  0.5895641812223800 26.6473265230651535
  4.7426601509755093  5.2903344250129098 21.9420436963434007
  9.9487774644462306  5.2903351771382701 21.9420427245555025
 -0.2740352934240600  8.9045631262060194 29.9794987994662527
  4.9320814994350597  8.9045638783313805 29.9794987994662527
  1.0240130964056200  5.9481990161612206 18.5881393271346020
  6.2301288480415398  5.9481997682865799 18.5881373835588022
  3.4316000997869400  8.2955299920086993 26.6805509795782498
  8.6377154600082307  8.2955302740557109 26.6805514654722025
  3.6823368309072797  3.5947402869744800 21.9088445063156989
  8.8884538370259705  3.5947409450841703 21.9088464498915023
  1.2747619778655801  1.2474294304803801 30.0012683061081020
  6.4808773442930097  1.2474276441826500 30.0012663625323057
  4.7406252433852192  4.2691498497450597 16.8392145870804022
  9.9467423987606001  4.2691496617137199 16.8392136152925005
  0.3074297973114000  0.5133244300119600 24.9028462549716032
  5.5135442292704591  0.5133264983567000 24.9028462549716032
  0.0566905596079400  5.2141103744193797 23.6865463155586511
  5.2628052561670806  5.2141094342626797 23.6865482591344509
  4.4898590156772205  8.9700221005375393 31.7501774975558995
  9.6959743169105597  8.9700215364435198 31.7501784693438012
  4.1971358857029291  2.5397896077634501 19.3030263496785039
  9.4032522771175593  2.5397900778417997 19.3030263496785039
  0.8477591343485900  2.2628880753825502 27.3168786682861509
  6.0538764879387488  2.2628880753825502 27.3168786682861509
  0.5970073787743200  6.9636549346089609 21.2725066138348495
  5.8031235731653794  6.9636532423269006 21.2725066138348495
  3.9463730741033802  7.2405880562549791 29.2863905155492539
  9.1524877455878695  7.2405875861766305 29.2863885719734540
  3.6305712495128000  5.1375915847003997 19.6405608422431506
  8.8366886532522599  5.1375906445437005 19.6405613281370997
  0.8063742719880200  9.0724615745695409 27.7678970941309551
  6.0124896534602401  9.0724595062248010 27.7678966082370025
  1.0571331429253199  4.3716530664013202 20.8215037365964513
  6.2632475309412206  4.3716540065580203 20.8215047083843494
  3.8812980794830603  0.4368176742987400 28.9488467909995535
  9.0874137169667986  0.4368186144554400 28.9488463051056009
  1.3467085916564898  7.8324382284934098 30.0785716040833506
  6.5528249503490290  7.8324354080233105 30.0785716040833506
  3.1969661050946896  6.4438023385192098 21.9563338374129025
  8.4030828189061388  6.4438026205662196 21.9563367527766005
  3.4477244681419998  1.7430384877942400 26.6330553318597048
  8.6538392387338803  1.7430381117315601 26.6330558177536503
  1.5974734252731899  3.1316331048893100 18.5108321420077502
  6.8035902883413302  3.1316325407952901 18.5108321420077502
  1.7213024201440601  6.1725019777098993 27.5907659123403022
  6.9274194174240993  6.1725008495218603 27.5907678559161020
  2.7448401798314004  8.0852885781592398 19.4856413305888516
  7.9509563178670186  8.0852898943786204 19.4856423023767498
  2.9955753302484296  3.3844972748586302 29.1037507540474500
  8.2016901748730486  3.3844974628899700 29.1037497822595519
  1.9720406946716296  1.4716852901783901 20.9986431785842527
  7.1781560448630595  1.4716857602567401 20.9986446362660999
