Cs Sn  O 
 1.0000000000000000
     9.1779980000000005    0.0000000000000000    0.0000000000000000
     0.0000000000000000   13.9607150000000004   -6.2153400000000003
     0.0000000000000000    0.0000000000000000   49.7227200000000025
 Cs  Sn  O  
  32  32  48
Cartesian
  5.0207224808020801  4.9353539936552000 12.1979920899888015
  3.6962751425756402  8.7636065349523999  9.0612591601488006
  0.5146858827835400  1.9731711602410000 15.4805848786536018
  8.7160259487294613 12.2917116613571498 12.4897221872562003
  2.7031084681790203  0.8091626225785500 11.7231900231689998
  6.1072715218695208 12.2815532866945496  9.0159997379562000
  7.7676657098889601  5.4551724214297499 15.3069137973113989
  1.4208378855217401  8.0039057483687994 12.8499703169904009
  4.9604332215198603  5.1512018647345501 18.6072687846282001
  4.3426337243460607  8.8546167152516997 15.5371488233915986
  0.3715743695493200  1.8462341967464000 21.7333529102928011
  8.8001289005223811 12.0982711566742491 18.6189716483142007
  3.1279126562889004  1.3266225271609999 18.6132544678151994
  5.9578103024989799 12.6397267381987000 15.5666853621395980
  7.7365371529722609  5.6477413586752006 21.7246136450256024
  1.4323898644844202  8.2885703115048006 18.6091018748544030
  4.9610308927496209  5.1330220820544001 24.8812222377312047
  4.2117253690326208  8.8417013785908996 21.7807238699436034
  0.3718011578799000  1.8294523004592000 28.0079211226751994
  8.9319745129915802 12.0851704217182512 24.8630628166998022
  3.1475228257155998  1.3316662542762001 24.8895500474904026
  6.0207847686560605 12.6515129322303004 21.7911464978964027
  7.7167381921266998  5.6537839749486505 28.0014346073910012
  1.3690539687661001  8.3004226793255000 24.8335245998100014
  5.1062791356982205  5.0053936443458502 31.1346615882437980
  4.1240025230485200  8.6507143299620992 27.9119255692956010
  0.4315853519321801  2.0473644028584501 34.4168352143790059
  8.2854114454257211 12.1777573251696509 31.3384459297325968
  3.1777491854289002  1.5261331507258999 31.3080164330868023
  6.0082812148607410 12.9406834557397001 27.5479448171243959
  7.2914773986163208  6.1737889178755996 34.8935949889919996
  1.5177111955118401  8.6614949336922500 31.3866871612902045
  7.3896169969904806  1.6366467290944999 12.4013551557324000
  1.9676582338027802 12.2696122683336011  9.3949543007951988
  2.7005481738569399  5.2372631111735002 15.6372125654147993
  6.4959091664005406  8.9462428422967992 12.3265586354112013
  1.0052395965257801  4.1598013736177002 12.1515313047275999
  9.1344348160529609  9.7039718174937999  9.7791490789416002
  5.3310062714873805  2.5816545078019999 15.4707131784384000
  3.4089134936753203 11.1124693310938500 12.2643568179126010
  7.2261180296789398  1.9586200466036501 18.5842758801389998
  1.8968072097621000 11.9451011720517517 15.4892291113722003
  2.6641374955312802  5.0666610797662504 21.7826125253094034
  6.4920087008105005  8.8979700403984001 18.6578216875920013
  0.8889534440659800  4.2726459725698502 18.6450706068150005
  8.1967926432768596  9.7173167253551505 15.4733071505874022
  5.4597899202638205  2.7716799423816001 21.7196214839376012
  3.6876639777321203 11.1901327886388504 18.6473287641438006
  7.2533771426388407  1.9140725218958499 24.8325683697510016
  1.9028244888108603 12.0416008450962000 21.7422709287383995
  2.6375819678980603  5.0215716001021500 28.0298639454714049
  6.4850314031709404  8.9956817827191511 24.9108996782370014
  0.8712598241816401  4.2082292790597498 24.8948429688809973
  8.2762787867358405  9.7491154647320997 21.7533922852139980
  5.4784601709153407  2.7072516614780500 27.9702671634270033
  3.6068982377919800 11.2231190264337020 24.9267156674748023
  7.2908786260268013  1.7427901848466500 30.9777327061062024
  1.9059148125174401 11.9952490375818002 28.0725226207944019
  2.8018408734440001  5.3447373022794498 34.2115974777846006
  6.5536242725836997  8.6737192149605509 31.0057036007082054
  0.7425136216370400  4.3993463019451999 31.1430862951535978
  7.9951932364278804  9.8283920828953502 28.1358628399674089
  5.5969131569229607  2.8218238989114504 34.4635608974310017
  4.5432758660036399 11.2385217436860501 30.6206164240446022
  2.7990469990728202  3.5082446132457501 11.6020421075706022
  6.7872280009185406 10.2193898279003506 13.9848704552946028
  6.6452658483738603  3.1990974234285501 16.9980043880538005
  3.4179509765259399 11.3471527196369006  8.3956296846780010
  7.4265767031565000 10.1962336087512995 10.9093767110940014
  1.3482755319739801  4.5396573511955003 14.2358612363844035
  1.7394455697131601 10.6054422688308989 10.9683379124700018
  6.8305570541366007  2.8097455071149002 13.9456170404508004
  0.1376986053537600  2.1062582375145502 12.3599809425738023
  0.0531810833911800 11.5005777665224507  8.8422619660158013
  4.5992013543567802  4.4941891173334501 15.1330947287237993
  4.4467426008394400  9.3237430888255002 12.0113318803476012
  2.3184897771922204  3.8469469159322505 17.1635886283686041
  6.9337942043799403 10.2161259523404997 20.2092721102476034
  6.8403338247261205  3.2088551255706501 23.2461968106917993
  2.4026491736728404 10.5469248150512005 14.0150218776288007
  6.9165544364967007 10.1894762038698499 17.0663558494086018
  2.1754658220589200  3.7648351557668001 20.2281994365360021
  2.3235161995769005 10.7218000817128001 17.1130655590368015
  6.7806093794408202  3.2590311917450001 20.1586758863640014
  0.0971563594484200  2.3347274325968002 18.5658575280431997
  9.0110768325742008 11.6484298355871516 15.4810624032257991
  4.7177693406793404  4.7330905963066003 21.7479979916279973
  4.4397554827420205  9.2342176305664516 18.6495628059534013
  2.2509299832343403  3.7698819542393003 23.3691693636540023
  6.9905034019823002 10.3951105554623506 26.3835394653858017
  6.9077861443274209  3.1331030295162998 29.4513730516500054
  2.3450772442584800 10.7222493375215002 20.1905383296467988
  6.9121724931315800 10.2187356287954501 23.2860858683574001
  2.1919495064669201  3.7199534115419004 26.4551813898899972
  2.3271359102081202 10.7500797436597004 23.3333864082059961
  6.7652681722238599  3.2150747637102999 26.3870538050820045
  0.1284624188464400  2.2463660187544501 24.8667007795086015
  9.0282798884654412 11.7047033836448993 21.7506013489403998
  4.6872531397891999  4.6443105006214003 28.0485478168920039
  4.4209718838152003  9.2920546390970511 24.9188178970902037
  2.0560150041087399  3.7806492952902002 29.6160481120295991
  8.0078851227421612  9.5931191333578507 32.0017467659189947
  7.3894258192921409  3.4744263168369001 35.0123811996972023
  2.1962432492712600 10.7215792232015001 26.4163240786644025
  6.3290711516366205 10.3355531680222992 29.4312582225012029
  2.2427419240986199  4.1715752822201004 32.6682796410588026
  2.8363720813392201 10.7451105667625999 29.4915145764264004
  5.9362257621425201  2.4386220963767502 32.3788320652530004
  0.0111220815363600  2.4864491326452001 31.4825204321424046
  9.0354286311076404 11.6183870749429001 28.3878137667804040
  4.7272723315885203  4.8745514500443008 34.2545644339715949
  4.6413479143125196  9.4445052280756006 31.5604011284784036
