Ba  O 
 1.0000000000000000
    13.2111520000000002    0.0000000000000000    0.0000000000000000
     0.0000000000000000   18.8843600000000009    2.1805780000000001
     0.0000000000000000    0.0000000000000000   34.8892480000000020
 Ba  O  
  60  56
Cartesian
  3.3662126269676795  8.8338341281828008 13.1039248962549806
  9.9717290446721609  8.8338447034244005 13.1038859947434609
  3.3509053935913600  5.0678738890780002 15.2870265663975005
  9.9565230087201595  5.0678772882628005 15.2869470625236215
  3.3180553356972804  1.3125242053263999 13.0364782013392819
  9.9236171997646405  1.3125098532128001 13.0364577039060805
  3.6385647530163205 16.3950820174724008 13.0479505056724214
 10.2441251638569604 16.3950752191028002 13.0479413472448194
  3.3373515443084800 12.6172954479176003 15.3169620427144419
  9.9429370563379198 12.6172829842400009 15.3169532767908834
  0.0692780920843200  6.2656542680776006 13.0886220577723620
  6.6748015116993598  6.2656467143336005 13.0886470035846827
  0.0400099738320000  2.5074148995588001 15.3312428006769004
  6.6455935041886400  2.5073931825448001 15.3312511086790799
  0.0529756626278400 17.6574529506671993 15.3812054031307994
  6.6585671196756797 17.6574208472551994 15.3812079762128402
  0.0173688336459200 13.5092847846220003 12.9975347136927830
  6.6229329436091193 13.5092513593048000 12.9975535320809215
  0.0302452150542400  9.9818391110944020 15.2964910817313609
  6.6358338977601603  9.9818336346300018 15.2965560411499819
  3.3084936323257601  8.7878522223316011 17.4143288155361802
  9.9141446716691188  8.7878473123980001 17.4143076639295842
  3.2906493293193604  5.0390854376324006 19.6890187303306625
  9.8962524121809601  5.0390671198032004 19.6889789347821598
  3.3056471575158399  1.2559289114680001 17.3882595040132415
  9.9112244786310413  1.2559500619512001 17.3882445016366027
  3.3035331089728004 16.3696963388551993 17.3828754824850016
  9.9091253586897601 16.3696955834808016 17.3828785352942035
  3.3084369564836797 12.5854059957164015 19.6675573508199832
  9.9140030481196799 12.5853982531288011 19.6675609923852406
  0.0056379912275200  6.2990323743776004 17.4022417626532793
  6.6112500576724802  6.2990010263400000 17.4022475629907625
  0.0007739092841600  2.5146319354199997 19.6869311539823606
  6.6063678764508795  2.5146113514676003 19.6869427328515378
  0.0028266580819200 17.6283893540963987 19.6815801682108216
  6.6084195683564797 17.6283774569496003 19.6815718165970779
 -0.0121469937064000 13.8452991120356010 17.3807040411068208
  6.5934279494014403 13.8452979789739992 17.3807234482510218
  0.0057575521531200 10.0965389368623999 19.6554749643740010
  6.6113178308822409 10.0965279839336013 19.6555211490160389
  3.3330527675592001  8.9025052148867996 21.7732985680333826
  9.9386390722577609  8.9025103136640009 21.7733005523593626
  3.3202078286926402  5.3750880567428005 24.0722533442500186
  9.9257755056668788  5.3750710608187999 24.0722245170088591
  3.3558128081132796  1.2269595478536002 21.6886528258120386
  9.9613852411022403  1.2269708784695998 21.6886639031482780
  3.3427870085758400 16.3769962770568007 21.7386208579051612
  9.9483797867388795 16.3769966547440013 21.7386209015167218
  3.3720676774225602 12.6187202728795995 23.9811641030675844
  9.9776426205303999 12.6187238609080019 23.9811645173774046
  0.0346066126640000  6.2670156415899996 21.7528310959751039
  6.6401886897939200  6.2669946799504004 21.7528443756951226
  0.3357996083092800  2.4892923346411999 24.0219566990522999
  6.9413505071204806  2.4892723172196001 24.0219742745109812
  0.0152753945000000 17.5718741299244030 24.0334446817412584
  6.6208831012648011 17.5718544901900025 24.0334312493807793
  0.0481463260142400 13.8165087721540019 21.7827779767149785
  6.6537175699995208 13.8164976303815994 21.7827686656469197
  0.0634130011539200 10.0505173738552003 23.9659461762922774
  6.6689917754958401 10.0505192622911999 23.9659861680928046
  0.9448364898512001  8.5167796982092003 13.4613952903798211
  7.5503683646035205  8.5167164356032004 13.4614371792832017
  0.7239904178819201  5.0267947407700007 15.2136870556888208
  7.3296082972337606  5.0267622596708001 15.2136874918044196
  0.9483012465747200  1.0348068414508000 13.5000792674385401
  7.5538674703222410  1.0347666177640000 13.5000536892585998
  0.6980887653822400 12.5513221808832007 15.1416398645318413
  7.3036577634716808 12.5513408763995997 15.1416601657130201
  4.2539705988259202  6.5722088050476000 13.4666449010801390
 10.8595613953161596  6.5722131484504001 13.4665756241170804
  4.0084253534120000  2.4733042689344003 15.1625353840515196
 10.6140166783483210  2.4733065350576000 15.1624923830533600
  4.0348303508028804 17.7142021520596025 15.1548976261313815
 10.6403907616435198 17.7142004524671997 15.1548901031372800
  4.3755352598497597 14.1768176398639998 13.5427733492450404
 10.9811193186524800 14.1768110303380013 13.5427760749675414
  4.0042065041323198 10.0919260542452012 15.2283815347152220
 10.6098056236483202 10.0919156678472017 15.2283213725682014
  0.6964482045268799  8.8115866525103996 17.5207892345157603
  7.3020759922427194  8.8115972277519994 17.5208239493175206
  0.6805500363215999  5.0255489395408004 19.5601430598000832
  7.2861586678670394  5.0255204241572002 19.5601387204498636
  0.6920229970529600  1.2583347789320001 17.5508982630357231
  7.2976214560113606  1.2583092850460003 17.5508834569111016
  0.6807777965820800 16.3635102002064023 17.4881470285332021
  7.2863664792879996 16.3635137882348012 17.4881565140475033
  0.6877254093073600 12.6251152725500013 19.5450211656799020
  7.2933016735304008 12.6251135729576003 19.5450359718045199
  3.9905654612462405  6.2593219644823996 17.5247729324639607
 10.5961463493724803  6.2593034578096001 17.5247313706472809
  3.9836012024694401  2.5208373361160001 19.5816597387688418
 10.5891886961716803  2.5208137306660001 19.5816454995945008
  3.9948288321081602 17.6259936841868026 19.5189289798937402
 10.6003900356179201 17.6260137016084002 19.5189382691560240
  3.9833353940912000 13.8587993521559998 17.5095943651215613
 10.5889378163951999 13.8587919872556000 17.5096004925457436
  3.9992753095368001 10.0727782574232005 19.5490017454015614
 10.6048769391716800 10.0727754247692012 19.5490059539171028
  0.7014148050097601  8.7924144948640013 21.8414750151825601
  7.3070185484289603  8.7924150613948004 21.8415214832997400
  1.0728020861305601  4.7075019476056008 23.5271121805343597
  7.6783824458107199  4.7074721103168002 23.5271373444044798
  0.7320910999537600  1.1701652128408000 21.9149892338006040
  7.3376760835371204  1.1701319763672000 21.9150188896614004
  0.7056242743715201 16.4111531743632000 21.9073873463885604
  7.3112108432931198 16.4111305131312015 21.9073697273183221
  0.9512132486985601 12.3121009625547995 23.6031459916140598
  7.5567962506091195 12.3121041728960012 23.6031432222800035
  4.0008474366247997  6.3329989173352006 21.9281701300256415
 10.6064310990929602  6.3329856982832000 21.9281375521903179
  4.2511327112648001 17.8496198203399992 23.5697886214648413
 10.8566821568492795 17.8496181207476035 23.5698268033856166
  4.0267653388414395 13.8575833882156019 21.8560907971489407
 10.6323595702312002 13.8575758344716018 21.8560867848854201
  4.2476568571736006 10.3676097613923996 23.6084686516773807
 10.8532273084897604 10.3676076841127998 23.6084795763731599
