Cs Ta  O 
 1.0000000000000000
     8.4915579999999995    0.0000000000000000    0.0000000000000000
     0.0000000000000000   15.9972290000000008    5.3324100000000003
     0.0000000000000000    0.0000000000000000   42.6592770000000030
 Cs  Ta  O  
  36  12  96
Cartesian
  4.1694054178545192 10.6427400111916306 20.4550928029788892
  4.2280332571760200  5.6787659383661504 15.1480510405728026
  4.2329982711386203  0.0265395628832900 20.4329497231507808
  6.5420746908335792  8.1316626537315511 17.6680981887898199
  6.4847758652546590  2.5108071642622702 12.6393875036610606
  6.3366593173722592 13.3006375368293597 23.1323929824631804
  6.4128111000227799 13.2321817145756917 17.6839038904270218
  6.3354652344862998  7.9894426487251406 23.1114903454714486
  6.3320737911366800  2.7417865145968601 17.7842451428282082
  0.2034362460382600 10.0384454855780803 14.1293103344672097
  8.4647927790151591  5.3287964792006308 20.4185620464419735
  8.4749810352191393 15.9210844295720619 20.6574945056343893
  2.1740769512863198 13.2961930266962902 17.7531396852021643
  2.0786208003409201  7.9839215250803699 23.1199833274758610
  2.1462338968445396  2.6684950499610700 17.7569168084025009
  2.0414535057216598  8.0385362248586603 17.8167868299698107
  2.1678796424267599  2.6287872080541401 12.5038875117891894
  2.1351478282132197 13.3182396078426404 23.1174208564271133
  4.2296897903106601 10.7409398012695814 30.8884764657835831
  4.2192574867297594  5.3356634497211699 25.7947404097495223
  4.4480349194762603  0.6258627896128000 32.0844871826303120
  6.3918554633592191  7.9955275147198703 28.4580533055648637
  6.3240388242103398  2.6802152598156299 23.0941648488745805
  6.4195724181646998 13.3687399802944196 33.7924229836790104
  6.3807877364931800 13.3440751326776397 28.4295500484505510
  6.4144079375046799  8.0338024848252712 33.7094553106993260
  6.2901299951424194  2.6252508606113998 28.3980958324741835
  8.4788373064536788 10.6389155536546003 25.7807296811004321
  8.4743748228935196  4.9873409052812008 31.0641678166974025
  8.4151218350720605  0.0230342500648100 25.7605853483795393
  2.0912503794699000 13.3612863913864519 28.4147121391555793
  2.2403530519828396  8.1536866787850109 33.5745448167561307
  2.2946965606310199  2.5319414234387501 28.5459543241194567
  2.0862763644558200  7.9232552335436708 28.4304286491601808
  2.0899501521089396  2.6749307351877700 23.1039367026849014
  2.1638717968819199 13.4316741989864497 33.8625436918061737
  8.3956418613577402 10.6931180048415602 20.4698868814511421
  0.0459867116736400  5.2356318169504306 15.0700436363736916
  8.4753230751753801  0.0074452703488900 20.4327842047084189
  4.3954264908742191 10.7125396006813016 15.6738987884513410
  4.2269679912249201  5.3622583630167995 20.4134734886935227
  4.2468482569833599  0.0026868945828400 15.0990614737267208
  0.0011158756367800 10.6623519740564721 31.1152009761831323
  8.4728183203121183  5.3024032909626904 25.8012203531461530
  0.1479051930037800 15.9489504826840314 35.8732780007426086
  4.2295073067292392 10.6573069279467401 25.7814620346694490
  4.2916958261513001  5.4282058197632699 31.1437518543971450
  4.1500403349199395 15.9692984780551601 31.0770185414387115
  6.9825633079737601 14.6351262200370709 25.7715982899155129
  6.9129956246496995  9.3106731484822305 20.4471784093877424
  7.0017065064977997  3.8949483667847602 15.0925709559718495
  4.3624944457230397 10.9613768177208808 17.4970576436864107
  4.3988796678504993  5.3218843964943101 22.4910717284721642
  4.3326115492185000  0.0594957742907700 17.1734057727821110
  6.1178731366841399 10.7977686775137620 15.0630856654114815
  5.7299968542626800  5.3546065684415201 21.7727695440276925
  5.6932976992359592  0.0139783787002000 16.5131017530862820
  7.0780193740035795  6.6276724511531206 15.0059583968633703
  6.9861085334387596  1.3793148385331901 20.4241942582022702
  6.9072779189859794 12.0749511271639296 20.4403505369583023
  1.3910495837892201 10.7096492213455807 19.1046617200630813
  1.5638481187323199  5.1724685179391203 13.7244020140857632
  1.4776090445024401 15.9906603778003120 24.3945920540348702
  0.0526787387022800 10.7025806857396404 18.3994120469936426
  0.2255841823606000  5.0103230043794706 13.0342025836307727
  0.1378889757648800 15.9833032521832106 23.6928794749111233
  3.9905125766503997 12.7909410251844093 15.3287423603448296
  4.0105135923635995  7.4250340141772906 20.4702016836305134
  4.1337282218331000  2.0947673896315600 15.0205356054450618
  4.2551354231822991  8.6169320365826607 15.7864535353204509
  4.1301309431175595  3.2795970364032803 20.3854356300644426
  4.0466468699652003 13.9415118061911816 20.4451143955000809
  3.1253435664051601  9.2231091161049310 15.0371752901588422
  2.7742921989843996  3.9511575103774805 20.4078545889450602
  2.7184442410053595 14.6668020132353920 20.4116631937665609
  0.0390925855646000 10.6951712491837103 22.5470828452422296
  0.1655942971359000  5.2085837021572301 17.1621953554337416
  0.1224153191149600  0.1413299191848500 12.1377025126474507
  1.3849762516764599 10.6824985643144892 21.8539727224973142
  1.5110555931528400  5.2689550047911702 16.4750044223812218
  0.9277490754066799  0.1074170734831700 11.1029351997453620
  2.9751487097022600 11.9326668132969402 14.7832053210471610
  2.6903547615504197  6.6853968522767202 20.4590775666012625
  2.7862400758371395  1.4059898979461101 15.0355381638066916
  5.7204688166931996 10.6517874040248710 24.4133867531440210
  5.7067597907112599  5.4535078370111201 19.0283293261991702
  5.7789479688341192 15.9248037853145608 19.0989609631843535
  4.3797604155200203 10.6559687597408903 23.7110718252995092
  4.3587300531460595  5.3915832034412805 18.3419330259621596
  4.4569776339527998  0.0109152292912800 13.0341974006477113
  8.4372925287698397  7.2800263320453409 15.1252856883173123
  8.3276834131902593  2.0801835158137099 20.4211473357720017
  8.2504695913806803 12.7701775817761511 20.4747675246981302
  8.3201461364783000 13.9271451747431509 25.7755775306778929
  8.2582273089383200  8.6177640524629506 20.4692187351996893
  8.3044817594356992  3.1274073983117798 15.1527639243638390
  7.2215703508116995 14.7275622085063205 36.7610854080558909
  7.0321063690533796  9.2586304831825608 31.1788727403773152
  6.9363079234049989  3.9793993383986601 25.7556615473992814
  4.3837462679296397 10.6781348401878713 27.8535944493689414
  4.4706320592168005  5.6551737049538202 33.1800486682296025
  4.2991807948659799 15.9586401642616220 33.1471148814329979
  5.7233242729018601 10.6712501127431398 27.1519463390886315
  5.8091632249187795  5.4925489144133302 32.4903123042152160
  5.6371400541366601 15.9536770239643708 32.4415517160510660
  7.0201241013907394  6.7137001096572604 25.8064110070822217
  7.3714209597532792  1.4414218405136301 31.1784399387368723
  6.9643685315627399 11.9952102196845001 31.1356232297815225
  1.4473076840196599 10.6509718652904510 29.7011328616432522
  1.4844695440417999  5.3100603646235403 24.4416039799659295
  1.8697069049835999 15.8648037783657117 36.4846831279244128
  0.0865834069067800 10.6054021587610503 29.0410340863926635
  0.1530171958353600  5.3434325039850208 23.7233290441498781
  0.1167329383325200 15.7055084910969907 34.0491016152293753
  4.0747039116685793 12.7350243109378116 25.7716495431547514
  4.0591772676967395  7.5368327286835610 31.0619527935032451
  4.0125297429795399  2.0472175460965403 25.7451261537616212
  4.0818191579479395  8.5847915238818899 25.7933220649539017
  4.1915761964678797  3.3846207644557604 31.0889221043847002
  4.0043784417085995 13.8920064613832004 31.0727263295883951
  2.7402828298697597  9.2855618182040605 25.7894847194426120
  2.8331191653409995  4.0367116509032206 31.2074753432513141
  2.6614172301980199 14.5876658010121609 31.1067036068406928
  0.2113577657497200 10.6532217155770113 33.1800544910699458
  0.1130856443403600  5.2731822725544202 27.8724618276722715
  0.1344142302312800  0.0082568097760600 22.5029429874882894
  1.5333991749714999 10.7372231650560117 32.4477420947510993
  1.4608254801154399  5.2110024831820301 27.1861259436303335
  1.4748925101826600  0.0131590006308200 21.8004967757357093
  2.7369174556031997 12.0271886804555006 25.7750194494726941
  2.7563377336647794  6.7703362192919903 31.1213374219446628
  2.6673960512702397  1.3541975892802900 25.7668296312549607
  5.1728941806019799 10.5561327730808205 35.1114571476280517
  5.7566887081863989  5.3947520945338896 29.7389224589597134
  5.6311399192538598 15.9794819940919801 29.6928040293380739
  4.3685217535914402 10.5232674259340619 34.0770901920651639
  4.4115428735491600  5.4567843894549011 29.0523449130252907
  4.2850690142880996 15.9663746645108304 28.9994803435774813
  8.3760867373551200  7.3851917955467608 25.8292250975144420
  0.0103839866158800  2.0482434483923102 30.4303709241210356
  8.2925461104264802 12.7204837896105492 31.1019054075663597
  8.2358299755575199 13.8711115207525619 36.2117866204310133
  8.3796028367761792  8.5698331549331517 31.1930291519791787
  8.2563713940218388  3.2397877720644903 25.7448607876902891
