Li Bi  O 
 1.0000000000000000
     9.1572840000000006    0.0000000000000000    0.1316790000000000
    -2.9224109999999999    8.5141290000000005   -4.0387389999999996
     0.0000000000000000    0.0000000000000000   46.8843519999999998
 Li  Bi  O  
  24   8  26
Cartesian
  6.8317010867661310  4.3141937096009704 22.3019971392755707
  4.6776509237132400  2.8716791450708401 22.5252154388610819
  4.2567104084904308  0.8727260637018300 23.9691334842118309
  1.2535738193631305  5.3485503805542898 22.1341533732546480
  1.6487779237160107  8.1154519296298506 22.1086179684270014
  3.3204347499551106  4.7582806315687503 23.7129132687787063
 -0.5669172735387298  4.8774324612721500 23.7177409264645824
  5.7822883272809404  5.5808758442837405 24.5223285158537792
  3.9941275298739001  3.2223057918753004 25.8667991788530287
  1.1158066613739002  6.7275277465741805 24.1439219757666699
  3.8107605479712596  7.2608916115624211 24.4656233396669549
 -1.9215432110869197  7.8549481045620002 24.2845686569319916
  8.1557222443734609  0.6575759821215000 27.7363405227745723
  2.4260313059897403  1.2536075827665001 27.5516854002991920
  5.1192140540030699  1.7854604452811100 27.8749885884880122
  2.2426958341236900  5.2985703999333307 26.1564414194433503
  0.4582336035558903  2.9377856522894099 27.5035201946454428
  6.8042217230814899  3.6305105131616102 28.2999077365476914
  2.9171159518343099  3.7585321921746302 28.3145603702416579
  4.5884127190344906  0.3966059233496100 29.9077702358767645
  4.9775442027297601  3.1626600611658002 29.8865023409966923
  1.9754904308084709  7.6451445554285105 28.0502407972591072
  1.5552119621862304  5.6454242658953104 29.4907674439673713
 -0.5979775534796400  4.2004860694040405 29.7081017651381210
  4.5571322359996209  6.6465229610075411 21.7300642763226577
 -0.9884782371403200  7.2136894506690004 21.2993509564193708
  6.7225359274116006  2.1385377138356403 24.8690430098744919
  1.4466901458310204  2.6121100862259001 24.5465319037738006
  4.7885715066177008  5.9059398404611807 27.4770724472225929
 -0.4863836408733599  6.3711527004340800 27.1457101075718228
  7.2226515980533801  1.2956387725530600 30.7190464548891988
  1.6808562734078705  1.8688345426658701 30.2922771868506757
  6.0218867329684507  1.5065476259133301 23.0763616468654789
  0.8258234761621499  7.6704693212912707 20.4467616653572577
  4.9555769268501306  4.6578488172976504 22.1686029064992205
 -0.6585263141478597  5.2086800139184204 21.8511184472524498
  3.4333349082771005  2.7000378803650200 23.8823964628231451
  7.0011197861070009  4.1061549691266004 24.3632730178013759
  2.7176587726322396  6.6073663114539603 22.8218180867265517
  5.0931939752616309  1.5337626986966699 25.9948426230941401
  1.2388661664817802  4.6727418168857406 24.0972436973321535
  5.5827873424688708  7.2444931436845508 23.4801830708873815
 -0.2046559768016993  7.8657435092862604 23.1923841765516308
  8.3372335944778815  1.5560841055546801 25.9629685936828771
  4.1090429127279311  5.4799915040562901 25.4954579314439869
  2.1277035130150499  3.0406536994325704 26.5251749185733985
 -2.1029621152180797  6.9480619079102404 26.0516366275129592
  6.4385319333434108  0.6458710129961700 28.8270727088938052
  0.6481721473069800  1.2678813497524202 28.5412662317569215
  4.9963202139589509  3.8447105030868300 27.9267118338022300
  1.1409698075747103  6.9814726272255907 26.0241109870329801
  3.5146463406533703  1.9034065040355301 29.1981224416825604
 -0.7675252451420997  4.4050289936522997 27.6559102782994408
  2.8007013143184007  5.8193131755158403 28.1404946281032018
  6.8960640654063603  3.3014560298631599 30.1653343752086798
  1.2818568877363803  3.8555972644152599 29.8481263898903997
  5.4039710893347603  0.8486696476362000 31.5702000808306380
  0.2106606881008202  7.0080434358675001 28.9385751387598695
