Sr Si  O 
 1.0000000000000000
    12.4466090000000005    0.0000000000000000    0.0000000000000000
     8.2813920000000003    5.8731419999999996    0.0000000000000000
     0.0000000000000000    0.0000000000000000   35.7941500000000019
 Sr  Si  O  
  24   8   8
Cartesian
 11.4675282719498206  1.1416640984337598 17.5632208153010012
  5.4586496923455696  1.0841826005141999 11.2396018469805004
 11.2642769448317512  1.7126679957855599 13.9313423296460019
  4.8832412297435894  1.6144937874733798 14.6778057037570004
 15.8328961575006595  4.2390184100200203 17.5622615320810027
  9.5934775086044297  4.0170948679738796 11.2398252024764993
 15.3615048549723614  4.6195798048798196 13.9321348121270017
  9.2827443514077306  4.7363545475631001 14.6764741613770013
  8.2405801286900697  1.5411706049057998 15.9615528711450008
  6.2082493701965804  4.4096684239720201 12.6851206752935006
  1.9888478538434100  1.5822396075063598 12.4688284389130004
 12.4898609599005201  4.3282697886172796 16.2959020889385009
 11.6761981852880705  1.0803481435652400 24.5544618891179987
  5.4696327885699496  1.3014631301522399 18.2307541513055007
 11.3657884793944408  1.7990841738137400 21.1168217902040034
  4.9978489710059399  1.6824384640602001 21.8626040016405021
 15.8225267279909207  4.0209154055763001 24.5544382649790016
  9.3842911332690111  4.0791748598851800 18.2319435909100029
 15.2466403349268411  4.5517860680423992 21.1171629084535013
  9.1813103143477104  4.6496265644261401 21.8622664628060015
  8.2904136426314707  1.4727724042937400 23.1090067743920038
 18.6059426721748302  4.4787065034049798 19.8325749364820005
  2.1246428699515603  1.3907971438574398 19.4982239289810018
 12.3533704353544103  4.5191727454420798 23.3252889884105024
  6.1977099429575402  4.4237885145055795 16.0498921174620008
  8.1660355446132407  1.6481254541650798 12.7264385785215008
 12.2831406298855104  4.6181098749000604 12.7817641644105002
 14.4110216829407491  1.6175023044628798 16.0654589932969998
  6.0834398165593502  4.5847137212025597 23.0677142850105028
  8.2802723387209003  1.4871466844130601 19.7442782852035030
 12.3284891645342007  4.5540974430764996 19.7287257270285039
 14.3657517495919702  1.6815218427882601 23.0124126812020044
  4.2370246403962408  2.7595140341716200 12.5602760492160002
 10.3641820470177510  2.9202221108088597 16.1406381624249988
  6.2387480655876608 -0.0055970455945800 16.1407358804544998
  0.1356206412537899 -0.1496624584778400 12.5605802994910007
  4.1561034321352706  2.9310026153383797 19.6536453497545018
 10.4995045147879598  2.7870284123503799 23.2338052260159991
  6.3197400253596703 -0.1772543621310000 23.2336366355695034
  0.0001605530204600 -0.0163933488760800 19.6533793992200003
