Zr Pd  O 
 1.0000000000000000
     8.8920519999999996    0.0000000000000000    0.0000000000000000
     0.0000000000000000    8.8920519999999996    0.0000000000000000
     0.0000000000000000    0.0000000000000000   50.3010400000000004
 Zr  Pd  O  
  64  32  16
Cartesian
  6.0502742686739603  6.0252467880352798 31.8527085362120026
  2.8140540026799199  7.2190885321651201 34.8911126767879978
  2.8426592893613201  2.8385163934139999 31.8713013096272029
  4.4460486747325998  4.4154633948323596 34.2085305820504004
  4.4460428059782791  4.4333686975011197 29.5575560837488034
  6.6323878289869196  4.4438852384810001 36.6657977533192039
  2.7533538324302400  1.6506162295100399 34.9894964809239966
  7.2924920657430397  1.5802126075153600 25.6169877004608004
  8.8920231897515194  6.6136278222799190 33.4806730242192003
  0.0000195625144000  2.2623980324004798 33.3683155911712035
  6.0494364595345198  2.8384969198201198 31.8712444694520016
  2.2596370502544798  4.4438024534768799 36.6658359821095985
  6.0780108018749592  7.2191338816303192 34.8911443664431999
  4.4460292011387201  0.0178234068698400 32.7935110197895980
  4.4460455625143993  0.0373293678191200 36.8807215219791971
  6.1387235099179591  1.6506102718352000 34.9894642882583966
  1.5995722942092401  1.5802033597812799 25.6168881044015997
  7.2638464980660800  2.8253239672257600 28.7310028553335961
  7.3041182458919991  7.2847042287603996 25.5861757984087994
  0.0000051573901600  8.8820038923194797 27.9289376822216013
  0.0000040903439200  0.1881743157881600 35.8217528412544013
  2.2588030646974002  8.8834862863083988 30.3608732497464011
  7.2683180442553192  6.0680636189846400 28.7302885805655990
  2.8418006728201997  6.0252405635988797 31.8527573282208003
  4.4460020803801195  2.1784599958976396 27.1357949075847991
  4.4460578335461598  6.6957457446588791 27.1160638216344019
  1.5879519828145998  7.2847028949525994 25.5861491388575999
  6.6332487574615593  8.8834552530469200 30.3608838129648007
  1.6281948314715200  2.8253493095739599 28.7309877650215988
  0.0000182287066000  4.4441411517375595 26.5033403142592014
  0.0000091588135600  4.4404550405014795 30.9944968392416023
  1.6237437370018799  6.0680879832071195 28.7302252012551982
  5.9966995664534402  6.1031270251925998 19.2705120227960016
  2.8162794165339600  7.2714923289782805 22.4536669631695993
  2.8263288580222796  2.8951364456034803 19.4149383808856015
  4.4460462738785598  4.4797305228213196 21.6611620057200014
  4.4459923880434395  4.4683304675547193 16.9752599742736017
  6.7064546207235196  4.4552563945786003 24.0786033285687999
  2.8287004572112000  1.6374800900109598 22.4963619829111998
  8.8920290585058392  6.6720513604560399 20.7715976705176004
  8.8920288806647996  2.2844333375411598 20.9005051517464011
  6.0657034905427993  2.8951646334083199 19.4148624263151994
  2.1855611886248401  4.4552584397505592 24.0785691238615982
  6.0757561331698398  7.2715046889305599 22.4536785324088015
  4.4460274227283199  0.0277473815044400 20.2197821834472009
  4.4460011911749202  8.8916556812423586 24.6946260811576010
  6.0633393606775590  1.6374577709604401 22.4963961876184015
  7.2916215338522390  2.7800730259619195 16.3560617170296005
  8.8920265687312785  8.7036018527587995 15.2233803832575987
  8.8920415962991601  8.8772366854012397 23.2735698910863995
  2.3031960118637600  8.8718678422446793 17.7476123230576022
  7.1812290202057598  6.1003617748616401 16.2062943945127991
  2.8952987255524802  6.1031183109816398 19.2704924053903994
  4.4460564997383605  1.9385834661991199 14.8291998043703988
  4.4460075045318392  6.6236089728088796 14.3695141931327992
  6.5888375815885993  8.8718768232171996 17.7476052809120013
  1.6004614994092399  2.7800184287626397 16.3560119190000002
  0.0000121821112400  4.5251526360861600 14.2924308673952005
  0.0000032900592400  4.4565068838513593 18.4351173805799995
  1.7108364067927597  6.1003779583962796 16.2063160239599995
  7.3580898003932802  1.8888331466232799 13.3887399881192000
  1.5339707359766399  1.8888042474542799 13.3887837500240003
  7.1747671660173600  7.3336256312487995 37.7563569961952012
  1.7173196908264798  7.3337001466445599 37.7563434149143973
  7.3848862658568395  8.8747269926447601 32.9746229323720002
  1.5071963228020400  8.8747174781491207 32.9746350046216037
  4.4460562329768001  2.8671343068092399 36.8681201054384005
  8.8920370613526387  3.0633339662889600 35.9031675895463991
  7.2081791403278794  4.4639306802251193 33.9445512271407992
  6.0747769404035994  8.8799853075949589 27.6326152616023997
  4.4460420056936005  1.6082909511952399 29.8344059657631995
  4.4460041255520801  6.0312402089243200 37.0280814367215996
  2.8729168082248400  4.4352185110786797 26.7665339669240012
  6.0191384818343998  4.4352006380541598 26.7664987561959968
  0.0000353014464400  7.2538280009187197 30.7314369873431978
  4.4460160409017595  7.2515993859259593 29.8342651228511997
  2.8172915988131200  8.8799689462192806 27.6326489632992036
  1.6838454721519598  4.4639680268435198 33.9445099802879966
  0.0000513960605600  5.9904123521663193 36.2260409111192061
  0.0000098701777200  1.5896934911987999 30.6626015231344020
  7.2654128330258798  0.0363007352437600 20.4834064130144000
  1.6265979967733599  0.0362894423377200 20.4834144611808000
  4.4460248440332402  2.8939069415734400 24.4663629797000013
  8.8920243457182799  2.7915504420809198 23.6432830380968007
  7.2776495414651601  4.5053158018819595 21.3758575249024005
  6.1928870438219192  8.7490474410409185 14.9447020584391996
  4.4460038587905197  1.7096826630457600 17.5322579774952025
  4.4460141735708394  6.0425819323297993 24.4202826999663998
  2.9785288657955999  4.2283057962698800 14.3397405045464001
  5.9135185103373598  4.2282888124505593 14.3397762182848005
  8.8920201664538396  7.3302068150958393 18.1292624098703996
  4.4460244883511599  7.3440438261335599 16.9425879397624009
  2.6991234302952396  8.7490852322619190 14.9447538685104000
  1.6143535522488399  4.5053109112533596 21.3759058139008005
  0.0000062244364000  6.0557767593720797 23.4916535710792012
  8.8920436414711208  1.3777477860374798 18.3420674987255978
  6.6938510262187201  8.8702836342603586 36.3924196490855962
  6.6768573367209996  4.4316203422368803 30.2978188840648031
  0.0000215187658400  2.2150039287636001 27.1816850493871982
  4.4460430727398395  2.2253999824388799 33.4411615572992034
  2.2152427692803198  4.4316472851544395 30.2978510767304030
  2.1982022186685599  8.8702895030146784 36.3923673360039999
  4.4460449400707605  6.6032970362663193 33.4063658128791943
  0.0000015116488400  6.6729309622398798 27.1665660657944024
  6.6781030242856803  8.8887736782686400 24.0253395573128010
  6.6346649945836003  4.4827356807152396 17.7943394741656000
  8.8920486210202387  2.2818302782386799 14.9063364492104000
  4.4459969229899601  2.2510077583910797 20.9497307555112009
  2.2573664647762799  4.4827523977729999 17.7943958113303999
  2.2139583123689199  8.8887684319579598 24.0253229579695997
  4.4460361369392798  6.6957952733885193 20.8796342442295995
  8.8920475539740007  6.5980052872005990 14.8637304623096007
