Rb Sn  O 
 1.0000000000000000
    13.7557220000000004    0.0000000000000000   -5.8871430000000000
     9.5102469999999997    6.3541730000000003   -5.8871430000000000
     0.0000000000000000    0.0000000000000000   35.3228579999999965
 Rb  Sn  O  
  16   8  14
Cartesian
  9.7399722961196105  0.5495202550096701 10.2321878051652284
 13.2825906022092077  5.8446236702468299  7.1303900353542886
 16.1119577874330524  5.1697028579562101  4.3905396454549184
 10.2983678926977795  3.5251002343723603  7.3087917797119486
 10.8555489533097198  6.1610529075132803 10.3633570601053169
 18.9297009981805004  4.4119594037395808  7.4137322819298586
 15.8062616530083204  2.5771596707907403  7.3058967182702679
  7.8055059167275598  4.0447926669437004 10.2090240168317088
  9.6640013483823708  0.6908923438347701 16.2831854780413181
 13.2224130057632703  5.4460013625152097 13.2991215609015878
 16.0515110488001085  5.0373374281082306 10.2417050194104604
 10.3318023547115594  3.2627133020126400 13.1912815230133180
 10.7101349996405801  6.1557471730582805 16.2144564391878312
 18.7000401095341289  4.5431097250847703 13.2963335865910786
 15.4151430876232496  2.6740697684246704 13.4747482237919058
  7.9070743874713596  3.9200838884772602 16.2600328164080707
 12.8254036266757510  0.4540626577818100  7.4410337309780701
  6.9621021053345604  1.0304732645936401 13.2825038634840595
  4.8395183291186594  2.1595256774431202 10.1857158757518285
 12.6193015786932605  2.6963703104437404 10.2385005297326988
 12.7715725992767410  0.3166942698222800 13.2095098250127894
  6.8146129825632604  1.0332242402522600 19.0511876559238154
  4.8217539574959103  2.0817730301538102 16.2536144176237514
 12.5410151842679696  2.7098321978198103 16.3060753964824769
 16.0568438624699716  5.3844310782301905  7.2319605603047084
 18.7116554380466305  4.1609092691378100  4.5943303415858097
  6.6008839501217000  1.5860811350459600 11.2879033736688861
 10.5352261910500697  6.2807687674615105  7.5560181701254185
  5.1321896978077408  1.6794381697634801 14.1802105743677682
 12.4707153810719706  0.6971316333869300  9.5394618763698595
 10.6382667081801401  3.2040958019207202 10.1653394141430873
 12.8724669711713986  2.2556564357586000 12.3118743485593782
 16.0635855722467866  5.3791287750286099 13.0490485602333273
 18.8665492111591000  4.1062827615654598 10.4397627568165170
  6.7256058770963802  1.4538804053621401 16.9527410837744377
 10.5330444768608693  6.2891327653814102 13.3729258468639483
 12.3965067524616508  0.8629982966262700 15.2041156721280846
 10.6472453034049401  3.3678315297027801 16.0107501646875576
