Si Bi  O 
 1.0000000000000000
    17.2424320000000009    0.0000000000000000   -7.9692309999999997
     5.2083760000000003   10.3720979999999994   -4.2129050000000001
     0.0000000000000000    0.0000000000000000   38.7047039999999996
 Si  Bi  O  
  13  26  64
Cartesian
  3.9220215645093601  7.4590752957606590 16.8910715504005609
  9.3781144888307999  1.5485018523051000 14.9659493303879909
 11.3270086712226412  5.2487027988997799 14.0737616584049494
 17.0599104006326421  0.0786151093490400 13.1529697735943607
 19.3890984968653619  4.4503767293350203 12.6987244903856986
 12.6665102979274415  8.1999951219667793 14.1992319766461410
  9.5876469434984806  1.8279442198756199 17.9873230363684868
 20.8599103398692804  7.3318645216990799 13.1411270004361711
 17.4498707690782382  0.5290394380299600 16.1942621222153598
 11.0078955949691206  4.5968588614805999 18.3812266856878495
 13.0702151211503192  8.6319351273599398 17.3877269163106263
 18.8428034735237588  3.4438793338388995 15.5742379466068801
 20.7566094057623189  7.3500996034718993 16.3514265851608087
 12.1975203466290427  2.5606346160865798 12.3798044767810289
 17.5256460622691215  6.3271809987011993 10.2539776989365006
  6.3529862037208007  1.2010128172006800 16.9609500661216615
 13.9720747646379984  5.9561143178651390 12.2372080346333796
  2.8934997012999202  1.0903264547887799 19.2383924700615694
  8.3843730553197595  5.1454027186366194 16.4941521475772177
 19.2471300242680030  9.6365853559232395 10.6039333946043079
  5.2524812922223205  4.2188912089612201 18.2587779505601091
 16.0988733993349626  8.7677046455281804 11.8869094904130641
 15.4312918545416817  2.9192972012034599 13.6385002501405292
  9.6522637579063204  8.6405645054539786 15.7760416400497796
 12.5842304119956800  2.6812319330214001 16.0705891625506325
  7.0013941938660000  7.8040000370765394 18.2165784143596596
  7.1132234611888805  1.4488853189256599 20.9498185671252699
 17.3465441088896810  6.4277425339294192 14.3415625680330905
  3.8403951258871203  0.7983216095626200 22.9194230030770711
 14.1951966446414382  5.7933907249033192 16.8472787550954237
 18.9592642123708011  9.9446693386319396 14.2053187905564116
  8.2062489369378397  4.7559476564192993 20.5687294581692797
 15.8064139151612792  9.3692028341392799 15.9444774065483408
  5.0316145338005605  4.1019039007352998 22.1629684256888524
 10.4024797621024803  8.1709760661823800 19.5471712046474657
 15.6353403495623215  2.7683045548006198 18.2042598210628483
  6.7450715717342398  7.8379382677793998 21.7227947367370007
 12.1286942393304784  2.1928914666126600 20.4764246444374116
 17.6376128249276789  6.0852771207703196 17.8337340251849170
 11.3481926341920811  4.4954754412068594 12.5801352843980609
  7.8637604763272009  1.4374273659860399 14.6570617303856583
 15.3489835185209618  6.8313259494374394 10.7889634012750886
 19.7979009960393633  7.3956547913767201  9.7388037982130395
 14.1346786490143206  3.5758671850763397 12.0199209778999396
 10.6674024057735224  1.8946378472254199 14.1244380779371017
  6.5168986738053611  3.3872368917769800 16.7541862806140500
 17.3803582173184026  8.6807622972998395 10.0479371607807604
  8.4343374647647202  9.5426107252508992 14.2898658699389891
 21.5518554578479211  8.9643243584749790  8.4949108179573791
 18.4768443402276006  4.5853820313226192 11.3816602894169403
 16.2017863094416015  1.2496141865671200 12.4198798366751895
  4.8284910622025601  6.2301662023840798 16.5968837072388808
  9.9156573247290414  5.2323549203580599 14.8100125470663713
  4.7143054437868805  1.9352625546249600 18.1468525946851891
  1.4075739987408802  0.0231018775963800 20.9625872675190799
 13.4633013767431198  1.8492030793783800 14.0543332511107799
  7.8800303936332803  7.2184151361009592 16.2530139979590267
 17.5599531159672821  7.1618225838304195 12.2102012107530484
 11.8302854676534412  6.8167407052298392 13.7767876011799508
  9.8200661402160812  1.0892340654274200 16.4931929466068681
 11.7484268665568798  9.5132408851121397 14.1122579050470822
 12.5999137459697614  4.5313930830920395 14.8581994526068293
 18.4153529326038381  3.9717306480429597 14.0044063034765411
 12.9134635144637606  0.1573242936269400 16.5115508168598417
 14.0332611312941609  8.0993961434647801 13.2788802875502405
  4.3571039972007997  0.4562575965961199 20.7004596263171621
 15.4688505104317606  5.4546144595608590 13.7137573671363526
  7.1345793128399198  5.5413818304959399 18.4511514442409386
 19.9634189630096799  5.9499933279514199 13.2057880428545324
 16.6134308174354430  0.1413593529433800 14.7866795796483714
 20.0052515262994390  8.5763576923206593 12.5252424107732079
  3.4490151235757605  3.4828699171985402 20.5818770625952787
  8.0467769944714398  1.6437338924179798 18.4230253541962803
  8.9332428029263191  8.8215835457989797 18.0811818433126206
  5.0797308290764009  7.0777778886203402 20.4495439957979883
 17.0613411826859220  8.7133914655141194 14.1438887416469381
  6.2649485333114407  3.6237412629310199 20.2381800227690789
 14.7031563555540821  3.1506058773063601 16.3360846520820218
 10.0938342798583989  3.3529709027773196 17.6301613270475706
 13.1319296166948796  7.9712844489709198 15.8037971730431810
 10.0789188072596012  5.8827360807962998 18.0293390962328175
 10.6431746318368798  1.2029400567300599 19.0771764176660987
 16.3245077907794425  0.8184797820256200 17.3524262261915538
 16.3502624228893580  7.0883294239157397 16.4551704128801575
 12.4889654488396005  4.5099633951352196 17.6841991209055287
  8.1736776234152799  7.4423492505258597 20.2275302322363082
 13.6457010880756009  1.9218168928246198 18.9157358431209026
  5.6758968316680800  2.1196018072607399 22.6231429567815141
  0.9826943733689602  1.9352608950892800 23.7403397122782884
  3.9166036989236805  7.7370505300690802 22.7171104225528779
 17.9066549674519209  4.3707493032211797 16.5780226221150642
  6.4822404437093608  9.7405800555894597 20.2948315805810395
 11.5408472314906412  8.9722521678602991 17.7859998581424890
  7.0144307576277605  5.6593291801127403 22.1567149537490380
  3.1973596045837605  3.4583917659185399 23.6758177274744703
 15.7211262241314422  5.0657323520370596 18.3159235074079092
 10.1904730973166409 10.1517380068249192 20.1879800107666867
 17.6061084121364004 10.3425482039609395 16.5047486559511682
 13.9448845443931191 10.0211109748450795 17.3496880809915979
 11.1372199166391201  4.1588879997053398 19.9428469676101727
  8.6117913623523208  2.7931508118386401 21.4897720947404700
 13.7339463069656809  7.4071824448148993 18.2408406671896124
 19.1607742632498415  7.0321414871881798 16.2799350387477162
