Ca Sn  O 
 1.0000000000000000
    13.5560139999999993    0.0000000000000000    2.1170939999999998
     3.3063449999999999   11.3636820000000007    1.0585469999999999
     0.0000000000000000    0.0000000000000000   22.2294839999999994
 Ca  Sn  O  
  30  10  16
Cartesian
  6.4473968894880098  2.7366870132181802 14.3201988354351908
 13.2278049902524586  2.7413985094122002 15.3732609643903793
  6.5696883865910793 11.0680421763516001 13.2326939080034389
 13.3623178852180580 11.0626517001580797 14.2890851140895396
  2.9424785137116998  5.9248285667432405 15.4310155715663395
  9.6864612142546278  5.8871585290973405 16.4757411454638891
  1.0545193246249300 -0.2118889191243000 15.1005359884733110
  7.8752951114315506 -0.2981622201419400 16.0411747358973287
  8.0551391572224489  8.5194300093480617 15.2496354598321506
 14.8331216307192797  8.5159948819162814 16.3126197929654388
  4.9186682608816499  5.3846006017419006 12.7123350133232691
 11.7121421173211306  5.3782101215323808 13.7751084313027476
  3.0578989025295797  2.7425105593327199 13.7839453939264196
  9.8361104527821706  2.7350899613499005 14.8497045276719106
  3.1965003541093400 11.0610807847584010 12.6946526657981416
  9.9778979842517188 11.0536914369010812 13.7574315138620396
  6.1578183282835086  5.8875923944761004 15.9215588705734490
 12.9419344220339809  5.8871672791324796 16.9826539729375767
  6.9877767340792394  4.8564895035835196 10.1067889601059200
 13.8478139225223789  4.8710768348932802 11.1883635796735792
  3.5165810987150099  8.0306741828761812 11.1043601205469482
 10.3152756043241496  8.0280541723542616 12.1633111894724095
  1.8776324332857901  2.2015700914699803 10.2748381875610502
  8.6176484001225102  2.2253733688817401 11.3285601186293707
  8.7954666873955887 10.9789328412172207 10.4450170620676506
 15.6265630749731290 10.9515786404541018 11.4796091158769098
  3.7366882652222499  4.8476500362661801  9.5941860834047095
 10.5145048560567904  4.8411013736032205 10.6497498125074515
  6.9035016808162695  8.0327385093483006 11.7630765092200491
 13.6503035994649089  8.0253423432817801 12.8063401454784902
  1.5536827548639698  5.4346128480448206 12.1907971946305480
  8.3239182269773586  5.3767886385510000 13.2864465578303985
  4.5297047595531303  0.3237255046218600 15.0935854347937486
 11.3396783812761175  0.3194649193296000 16.1662978988968824
  4.7444726115442801  8.4777631374691200 14.1832762239574794
 11.5179930165213786  8.4082996766868003 15.2282860816168188
  5.1600716750041498  2.2857638386816199 11.3678193472983313
 11.9176708596632892  2.2830124639957803 12.3986832823698290
  5.3831059481614094 10.4583171140692208 10.2949385104355091
 12.1622293524347604 10.4949891931618797 11.3408932595774399
  1.4426228511581700  1.3569851087212201 12.6984847917782719
  8.1503437222183095  1.2065738228537402 13.9463316391074894
  7.8407820263759902  6.8699279304288607 16.6516694199419710
 14.6447199847804193  6.8491811425646407 17.7450735638650201
  4.6080139620109799  4.4358794053292403 14.8451432770511396
 11.4680069766428190  4.3532097551474402 15.9362339781860989
  2.1159488959066897  3.8044494831532201  8.8014591221767500
  8.8103060788986003  3.8835369598581604  9.8938417137885590
  8.5154515396945598  9.4530425087208005 12.5664355808368811
 15.2891155472035880  9.5104173982283413 13.6106086368544492
  5.1611577336723595  6.3302611040446815 10.6315398981739193
 11.9387886233707494  6.2979872244333004 11.7139719704136898
  4.1641195463636498 10.3302850089852605 17.9758959329641463
  5.7497510761706394  0.4370528915610000  7.5113223694012792
 11.0863359696214996 10.4028688232079602 19.0370292416651381
 12.4043211108857996  0.5896719135674401  8.6350778230795200
