Cs Zr  O 
 1.0000000000000000
    12.8665909999999997    0.0000000000000000   -1.6577080000000000
    -5.2876760000000003   11.9002510000000008   -1.2260150000000001
     0.0000000000000000    0.0000000000000000   31.8712629999999990
 Cs  Zr  O  
  24  12  36
Cartesian
  2.4688715447860501  6.6252820753971502 16.6549024324528681
 10.2830291837343388  2.3223671843502900 19.0061790171609104
 -2.7189840160607703  9.4595675931248806 19.1046823989880821
  6.9495234437275100  7.1892472275456800 15.4087728847709311
 -0.4740503976326103  3.8514667311058406 15.3915764569341302
  6.1931758967727895  1.0358233135771402 19.6872538083808095
  1.1221589621353201  8.4406398989100104 20.5461123023778356
  8.9839619620538400  3.7040678421696405 15.7860509337760000
 -4.1566630082078397 11.4652194743185003 16.0157348930712899
  9.0949730631432377  6.2829270864484306 19.5476444817666604
  1.6013099087495697  3.3879912254841402 19.4433800761207323
  0.2364490014131597  9.7470538567828804 16.3970158365746279
  0.7589294098447299  2.8847012880967600 10.6014963843579704
  7.3101806521703399  0.1305085056843700 14.9535035328121690
  7.4258183494051391  8.7020975765732800 12.1113519998926691
  4.3353564707620995  6.4462040042838904 10.0504124441384590
  9.3962439501692998  1.7044328468841301  9.6991233326554092
 -0.9432891120364602  9.2219927671985307 12.4263106129160299
  1.2797805262192496  6.1085216488903207 12.6921607878849496
  5.2174085844946401  0.5446681811369700 10.8837395429492982
  5.2480735978047797  9.6801394594249395  7.7765729677902904
  5.6633521698093503  4.4103440499418305 13.1264979038765492
 10.6959300484337909  0.2985515930478400 12.8857555295716093
  0.5000845985233600  7.4144459114345409  8.5415464694370407
  5.4376019906989903  8.5800239687977111 18.6488125352531782
 -0.9107314792721499  6.0104338300228202 18.6646284032732517
  4.4192186521130994  2.3004701274977402 16.3403026961278286
  5.8619639984032395  4.5619432514709901 18.0116559978065318
  4.6263590619524892 10.2592717194779919 16.0489022142689208
 -2.4248468717964098  7.0569495191234601 15.9135035153756892
  3.9302454586546598  8.8288973690335002 13.2518217654137889
  9.7263539322710795  5.6043346705825607 11.4790714272033494
 -4.3536450831048104 11.2817794852036997 11.1194722107204207
  2.3958360757550299  1.6456621482930203 14.0030556324861397
  2.4692221338466496  9.8580770104823614 10.4638487779068399
  8.8793861599193882  7.2523605657317107  8.8714352500634099
  5.6629810317768490  6.6311583003384413 18.3382097760821878
  9.6399101129561497  0.2433921446251900 17.2956570855045157
 -0.2892819829480597 10.6535234650326895 19.1752169606658605
  4.3309011288561905  6.9348924526967810 13.2940005229646303
 -1.3094790172935502  4.0628061446750809 18.8600019770135994
  5.3252923222219897  0.7399609392502801 16.8947118212507306
 -1.4372582657760999  7.1789076944643302 20.1891786034114915
  4.3819872523332295  3.2921586231836502 18.3140116609470063
  3.0482421799153103  9.4807163621945509 15.1241628493749900
 -3.0537650693728100  6.3848585673864200 17.7115184264644085
  2.4211998896891500  1.9503609349974202 16.0984632375262606
  3.7984399275514900  9.2050169401445210 17.9662815021217064
  1.0582980627106600  5.9901738907003406 19.0142767724326447
  5.8028499532522995  4.0208768003016804 16.1055094644769206
  5.6004875947841803  9.7768141234861901 14.3421150753795708
 -0.5490611620818298  6.7751921552993704 16.7143644776251179
  7.5194855146678492  3.9405079791631406 18.7296212488921370
  6.4183905456152894  9.5393640121903207 17.3359090685924926
  1.5048723299461899  3.2082260338781405 13.4284259860569701
  2.8407483271104486 11.8064570296983202 10.2320322573805296
 -2.8177932138654707  8.9521485066455213 15.8654228610628376
  1.9108970438520791  5.2145196956081907  9.9596425752404087
  9.9919017074648888  3.7173986223423503 11.4963351556978388
  8.6898432380450892  9.2088093121331998  9.1549869870085789
  8.7683488183201597  6.1010434121594104 13.1930629664183598
  0.9829638846681200 -0.0565197661144600 14.2464259934294297
  0.5029215229550097  9.8446128284959400 10.0832651177902104
  7.9187053910071601  6.3225271946936008 10.2201041586349888
 12.1708855049254403  0.0331562413311800  9.9355536483497104
  2.0670558148387190  9.0997479148110703 12.4197285015091587
 -1.5565968755427806  6.4016416103742309 14.0272073369943904
  2.4429558393335800  0.6209379608185600 12.0470840986202088
  3.0312739218280784  8.6995358095405102  8.9450141554084492
 -2.3404631528585198  6.6127731265585004 11.1801364275348885
  4.3938491229978895  2.0001987101753800 14.2480904766000105
  4.5737886199478703  9.5227225821894113 11.4691529922896400
