Si  O 
 1.0000000000000000
     8.7309540000000005    0.0000000000000000    0.0000000000000000
    -2.8093040000000000    8.2666419999999992    0.0000000000000000
     0.0000000000000000    0.0000000000000000   35.5905970000000025
 Si  O  
  24  48
Cartesian
  0.5496227622827600  0.9375544237835599 13.7542410393245209
  3.5105313050154998  5.0696597314110399 13.7535110761800503
  3.5400896366935011  8.1869623177545989 14.1553758958980911
  0.5793236691234602  4.0540590311748597 14.1567948930004803
  2.5323181445875207  0.0520535566784400 11.6215894717278303
  5.4925418662568406  4.1850643922705997 11.6217706278665620
  5.4087140602745798  1.0202596143345399 11.5611751451322711
 -0.3615466605083602  5.1545285501726799 11.5629721143748014
  0.5831930530295799  0.8905971692317000 18.8649607243141091
  3.5426340790769202  5.0244182184062796 18.8643143990725903
  3.5668396995489808  8.1341187181002184 19.2883446866962593
  0.6039801573436403  4.0009980188358796 19.2883631938067026
  2.2524708345659401  0.2068613907504600 16.3022391447828525
  5.2129460911077601  4.3396718429405396 16.3021224076246902
  5.1905537774357811  1.2279805705201599 16.7257095923157095
 -0.5809227955028600  5.3620153950568596 16.7259473375036691
  0.8515479061756601  0.7503662356639599 24.0282345525518117
  3.8103615005304401  4.8836421824650591 24.0285459702755588
  3.8030301921090204  7.9196030781891187 23.9692168009825330
  0.8406734434834602  3.7859280179122594 23.9696581243853295
  2.1948475713551798  0.2131574306305000 21.4340078206501801
  5.1544483211357397  4.3467574297980001 21.4345722875185984
  5.1362443728002800  1.2445223691614198 21.8362879826352092
 -0.6351870854241397  5.3776215751565593 21.8370207930274418
  6.2425894789512002 -0.0111912146067600 10.7879210220953503
  0.4730136313166600  4.1230910305249999 10.7895937801543518
  1.7213065839646799  0.4795628650420199 14.7852383508697702
  4.6822630661625206  4.6136407587835393 14.7853034816622806
  3.6942654129862396  1.0721341982136801 11.3688834204129119
  6.6553991863811000  5.2044682438252998 11.3694934432454904
  7.9636278245610406  0.0323057062703200 13.9545506137360409
  2.1934062468722599  4.1648645218779192 13.9561400897980601
  3.1279134997877400  6.6315021963940790 13.8761491553226506
  0.1670592666361400  2.4992208919584198 13.8768460192119107
  5.4909422688388201  0.9559223236426199 13.2444110758890723
 -0.2797225265380601  5.0882877824938397 13.2453574298633008
  1.1920405975842401  0.5960157122273799 12.2634374161452300
  4.1506548727152603  4.7290827609851398 12.2617198139340111
 -0.0925514120491799  6.8111258284187395 11.2648079730416306
  5.6764161736776808  2.6778339269985798 11.2637235275510399
  6.0043589539339406  0.2462676465002600 15.7207179740923912
  0.2321787848426402  4.3779495367244996 15.7220907034186812
  1.7761606583192600  0.4376704993771399 19.8688775065080314
  4.7340612723681605  4.5701712831578991 19.8697423580151309
  3.5807179860025204  1.1085931480912199 16.5346589117137412
  6.5400140265158804  5.2434412448678795 16.5346955700286493
  5.1776549078991199  8.2556812593721993 19.1258732554852919
  2.2148551266949403  4.1234570774327599 19.1254201871854796
  3.1386875852830811  6.5872740083656796 19.0547514977822843
  0.1783038785882999  2.4529671286407599 19.0558814992370316
  5.5842765894215400  0.8347828691082000 18.2539185770360319
 -0.1892747713036198  4.9696494831629394 18.2554350923741993
  1.0818259582185401  0.6462487063381600 17.3363349737029218
  4.0402631637930204  4.7783983231667602 17.3349828869228908
 -0.1547199427330002  6.9089515338519201 16.4646981192848720
  5.6163974107191805  2.7752073644479398 16.4647632500773824
  5.9453209146569401  0.2825078610304800 20.8045055425201433
  0.1737918483211403  4.4153668384090992 20.8051465291721129
  2.0953288833754398  0.2930457629199800 24.8031205044611838
  5.0559774719505803  4.4259509508273789 24.8015114535708108
  3.5345461556639601  1.1027378028961998 21.7153710647635307
  6.4939779255117802  5.2373732816406191 21.7133096573852917
  5.2898887432804607  8.2294882388623591 24.3276084182770127
  2.3272059654326407  4.0975481814084596 24.3256320724256021
  3.2114131829441805  6.4907443470652595 24.2206266427547128
  0.2491821082924600  2.3570745774392798 24.2218399262064423
  5.6658229856647404  0.7481732608742000 23.3284881808407789
 -0.1060622387933197  4.8808755853869190 23.3291110162882802
  0.9381346831042201  0.6933374831642399 22.3449989777009819
  3.8993986469728794  4.8266156619586802 22.3466397042226816
 -0.2015889986098998  6.9156667751477787 21.6351868733464130
  5.5682907573310603  2.7829456026912998 21.6350000227121591
