Na Sn  O 
 1.0000000000000000
    11.8636479999999995    0.0000000000000000    1.0122660000000001
    -1.3761800000000000   13.8318800000000000   -1.0489809999999999
     0.0000000000000000    0.0000000000000000   30.7598739999999999
 Na  Sn  O  
  48  12  46
Cartesian
  0.9545885701999597 12.5549812837156001 16.9688369812921920
  6.6770983883510802 12.6495943859292002 17.6477038040740339
  3.1802110132761197  8.1407525590435998 14.2677109043774699
  9.2059905646999187  8.1208790521784007 14.7562863809143412
 -0.3290647285841600  3.4969111684016001 10.9102292170124802
  5.9510643684685203  3.6072252525596000 11.5307982836462681
  3.4848626939087195  1.0039955855656000 19.6897481229204416
  9.7859019121229593  1.1049710759416000 20.3397060820194220
  4.8729159039286394 10.3027488503264006 15.9326254207628413
 10.7159085781675198 10.3248859443535999 16.4661984152328600
  1.3729005879774401  5.7942680355088001 12.5555477250403591
  7.1119615803553202  5.8725992168180001 13.2621144488573908
  2.2794169282193200  0.8152622110228001 15.0841665318557698
  8.2212122089759596  0.7672904848068000 15.5959093130161701
  3.3101435915757604  9.9727796706104002 11.3846366141006623
  9.2072866935688804 10.1127599560360011 11.9015965369647603
 -0.1150066018406400  5.3642841278016000 17.9966714566255632
  5.7937058171720395  5.3839064477259999 18.4154718720524926
  2.2482309088376002 13.0522549362031999 11.7961687195999207
  8.1669486516606788 13.0739747224107994 12.2032441305075512
  4.7371656101169588  8.4609084348560000 18.8197098265443188
 10.7085926570964780  8.3300544238543992 19.3201823823362595
  1.2086364226100801  3.8414212502864000 15.6615840908432808
  7.1468413242476396  3.8005177530692000 16.1688320779760524
  5.2945673619328000  1.5875357689184000 14.2628017768332391
 11.2186561793335606  1.5953492596116001 14.7537269632283099
  0.3741145349318000 11.2013293269923988  9.8934746309997710
  5.9775786792541190 10.8297582784379998 10.3619573622689121
  2.8608465513797201  6.1863491340460000 17.0921909010425921
  8.8170599001526000  6.1884125739044000 17.5781714429288058
 -0.7647751917160399 12.2577944895124009 12.6252894631504500
  5.1914751706689195 12.2473364816819998 13.1200805047713303
  2.0765870736891601  7.6102404839596005 19.8414829623032141
  7.6702284570027199  7.2396950693072002 20.3072002872504420
  4.1227787930394406  3.0330997383288003 16.9948885589651191
 10.0820287566190796  3.0174333360844003 17.5055933560367301
  1.6637085270417600 11.3172392365232000 14.3097579911550401
  7.6523466797182795 11.4080066611403996 14.8980039262057691
  4.0948541110975194  6.8755168839751999 11.4496986974124191
  9.5057716477492793  6.2047229884816000 11.9756335268184610
  0.6626237475056800  2.2541690349080001 18.4035526506206217
  6.5299023063989994  2.2729370979235997 18.9225997024810688
  2.8931943565243601  2.3409581341996000 12.3300198429776895
  8.7496264453789205  2.3832632158172000 12.8719728094795300
  3.9604673083466002 11.5544558402043993 18.7477987484566881
 10.3994624048495599 12.2392437253315993 19.2293381328913107
  0.4007118973850000  7.0343202832987997 15.3036382145901690
  6.3821206389930003  7.1267493316603998 15.8946238752785689
  0.4655748062214400  0.1836740877952000 11.0954042158451198
  6.3986948881238392  0.1554858229056000 11.6184161838718207
  1.5758557168370002  9.4351501250348004 17.4807864106635087
  7.6166791889850796  9.4993104069651988 18.0793154780680325
  4.0066019325982003  4.8237952559924002 14.4845566014652896
  9.9402222542657590  4.7936698363087995 15.0177743577195990
  4.0494386984182000 13.6174799122915999 15.7109773911944330
  9.9776779048476794 13.6458921153184001 16.1932151271474609
  0.4309601768158400  8.9435735472816003 12.1235502302993403
  6.4760474733436793  9.0030080290912000 12.7221655660917605
  3.0189436689019598  4.4471351821483998 19.6643494102583070
  8.9545637915329994  4.4353006256203997 20.1499062635527117
  4.9778307108148789  1.4996485566736000 11.9183078922863217
 10.7850776778634803  1.3767336298355999 12.4583277161627688
 -0.1685750520192401 10.4041372223203989 17.5942708942413084
  5.8706785474743999 10.4755051586000008 18.0940156777640411
  2.3820885343792000  5.9485538045056003 14.7644427289753803
  8.3356726837081982  5.9627092121787992 15.2718752537583100
 -0.2771584563964400 12.4829799856508004 14.9454612459714120
  5.6775291201429994 12.4981156586596001 15.4360916360989489
  2.1785371411808403  7.9671367377467996 12.1071709277500119
  8.2268871280493201  8.0397430422427991 12.6191723253119505
  4.4455517299713998  3.1065737166571998 19.3402422380969519
 10.4962288786375595  3.2413164224019999 19.8015128480601525
  0.1803666073327600  1.6890635662628000 16.0483158643486128
  6.0765081918425992  1.6769952509628001 16.5745979305807865
  1.1763944659985601 10.8656560182832003 11.9825928492777383
  7.1066415548305599 10.9203063294384002 12.5388539581789598
  3.8390103466662802  6.2794537314268002 19.3486479874580688
  9.6665977884580396  6.3354294133235998 19.8567160583840696
  4.2104338619740398 12.1591516073796004 10.8627457262029115
 10.2430966193166793 12.1037070696748010 11.3568553971976911
  0.9459684583143201  7.5203762811064010 17.6642897562986967
  6.8676488579489190  7.5802488185556003 18.2198397816734889
  3.3481970098789597  2.9386008874440002 14.6776281286492782
  9.2529574901921592  2.9188503459919999 15.2129889170225603
  2.9484233598017600 13.3096208544367993 14.0583814024797604
  8.9420101014468791 13.3254190744975993 14.5012248521504610
  5.2874015739773590  8.8089542219063990 11.1384844531899585
  1.9452347354687598  4.1801032695332001 17.9662627827021488
  7.8363470494304801  4.2005557788952004 18.4722954709765403
  1.5842101344844799  0.4147948436416000 12.7822231629410794
  7.4793741866328798  0.4274352454984000 13.2999671727319804
  2.7618232344785199  9.6294440536564014 19.0618066306349512
  5.1038328604761194  5.1335624216931999 16.1453124035019719
 10.9844327418757199  5.1147745790892003 16.7064980417350100
  1.2666237386947601  0.2752437614524000 19.3822847877525710
  7.6106773801651197  0.6098243516416000 20.0267505824630412
  2.5740229752767201  9.8004161877287999 15.8087859021358224
  8.4679464049689201  9.6950707915044010 16.2841316755391112
  4.9655960124353600  5.2329216568912003 12.8142326655707190
 11.0128282941592790  5.1749049427815992 13.4066043318204802
  3.1050450470299200 13.2004983867408008 17.3886584428918844
  8.8959293524239982 13.2561506792832002 17.7944458412430819
 -0.4103242729215201  8.7518794588248010 13.9241480204031198
  5.4744673175423602  8.6455077371043991 14.3967415930433109
  1.8352997604184000  4.0137233196207998 11.2248561733630616
  8.1318099536062416  4.3486019868239998 11.8771523945510395
