Zr  O 
 1.0000000000000000
     9.8167539999999995    0.0000000000000000    0.0000000000000000
    14.7251320000000003   13.4591040000000000    0.8579380000000000
     0.0000000000000000    0.0000000000000000   23.1456659999999985
 Zr  O  
  42  13
Cartesian
 19.6239479379349362  9.0309325376044800 13.2369096293120396
  4.9015458601190005  3.2444524177862397 11.7689656294406202
 14.7138075586943806  7.1066729984860801 15.1098211466527790
  9.8379613314592387  1.3408699655520000 13.7022483462137998
  9.8194155115917390  5.1941026911916799  9.5139568260684602
 14.7346078729895584 10.8942985141315187 11.0854501307316191
 19.6043347873584395 12.8285744530377599  9.3015683147739203
 19.6518371265017002 12.1562265278102402 13.7286548408015978
 14.7248540051832393  6.4029675143951996 12.1036786584229183
 14.6305010493774592 10.2311070865372802 15.4495273803477975
  9.8234806191850197  4.3956832042051204 14.3970535700781195
  9.8690928350778613  8.2745465053651195 10.2156017702010384
  9.8132877499401214  0.6161244025420800 10.6934555589570994
  4.9455766440523004  2.4723837029750397  8.7866267228114197
 16.3366328673517387 12.1988785629772796 13.6256174036424191
 11.4686345422608191  6.3836329731350396 12.1073931193625786
 11.4849143935307012 10.2377517115910397 15.5692041192341577
  6.6527173892294993  4.5789262133443200 14.1885298298864182
 16.3340485690259598  8.3865317688777594 10.2074644894689399
  6.6602287811523997  0.6748390707868800 10.5990356494259181
 11.5058756255819592  2.4189210462931201  8.6519321805211380
 21.2900335258766162 10.8750976217740796 11.1310369085464806
  6.6418809602937197  5.1224851837151997  9.6623539349987801
 16.4099386460107581  8.9305943789203202 13.3013488948875800
 11.4595056559590809  3.1847623682745603 11.7678218002656791
 11.4340939075337396  7.1370177597734390 15.1677839273177373
 16.4103705234415003 12.7508416670678404  9.2016008149969988
  6.4089414732218195  1.3033037220134400 13.6701768111126007
 17.9909510743410799 10.8900113857344003 11.1880938241528209
 12.9834243293416591  5.0833248438988798  9.7632954456500798
 13.0635150473742421  8.9699055952924809 13.1608603641572799
  8.1519763315281999  3.2288518357488001 11.7826300295732196
  8.2553844808895018  6.9815836821369608 15.2860059366716392
 22.9650092662818821 12.7444802215622399  9.1781413014386590
  3.1701702458779399  1.0969241093251201 13.8365321774662586
 22.8738877597679995 12.2079341173305593 13.6174356271031982
  8.1515883183450004  6.4514660497488006 12.0980798804557583
 18.0018019318238593 10.3184389054800008 15.5769990164617376
 12.9814409575191796  4.4920921120675201 14.0668080571050176
 12.9999553096239993  8.4981568667673599 10.0335947062422388
  3.2595813537212397  0.6280087913740799 10.7117121675337401
  8.2940213797511202  2.6304503813539197  8.6460281845329998
 21.3128993757376577 10.5961100461459203 13.4399179460141589
  6.5398671945660602  4.8329736654873594 11.8983496556654984
 11.4573041696620592  2.7792563886345598 14.1426088114224591
 11.4292690904483791  6.7366676936937600  9.7287121302029576
 16.3960567903511816 12.4513704118800010 11.3710990487440995
 17.9588242877034006 12.3908086162022393 15.1020970941394168
 13.0644445770186195  6.7351130325907205 13.7128276595635601
 13.0900269871428403 10.6757584663881602  9.6288628680629991
 18.0527525805602593  8.6949601923686402 11.6708206115492388
  8.1803041827214003  1.0822657991587201 12.3228616438385981
  3.2309752040974402  2.8626887013753599 10.1734346019552202
  8.1481659821969803  4.8695357252764797 15.5889433043639389
  8.1603728612299413  4.7464227437587203  8.3386771227037393
