Ba Bi  O 
 1.0000000000000000
    18.9529819999999987    0.0000000000000000    0.0000000000000000
     0.0000000000000000   11.3857540000000004    3.7952509999999999
     0.0000000000000000    0.0000000000000000   53.1335199999999972
 Ba  Bi  O  
  96  48  24
Cartesian
  9.5411589536436381  5.6576757782157401 16.1350786908054111
  9.6181647299798190  2.3269853343976798 12.8220072881045191
  9.5458158908508590  9.4496911284522209 20.2719764608057282
  9.5682736582822976  9.4920683355525206 16.4487292446187787
  9.5132741893463191  5.7070126413060800 20.0845816978591216
  9.5333010473064395  1.8865273270501401 16.5392796377306119
 12.6294855838223192  7.3029877090330002 14.5332985701802997
 12.5933198826295598  3.8402680618309399 18.3653474067954079
 12.7174795410028185  0.0948321727810800 14.7350281443056197
 15.5812103020043793  7.6269716162538002 18.2612055271074993
 15.5328511998419199  3.8127272891954198 14.9922505247389299
 15.5973527463035975  0.0010601275549400 18.3951971278878084
  0.0161723900107800  9.2847348937879204 16.1924706879546783
  0.0307316917235400  5.7271370753586197 20.0239521380525289
  0.0371082329876200  1.8861289395176801 16.6361187039093217
  0.0382533721600600  5.6898609137653997 15.9338431110493008
  0.0419258914822000  2.0630667446888000 12.8318367715235997
  0.0348010864887600  9.5342244313101396 20.1176990316222088
  3.0690662308106398  7.6109285195801002 18.2291231667627471
  3.1530165692814398  3.7669353806129799 14.8201321548304694
  3.0760191322573398 -0.0331907253429400 18.4255032745045888
  6.0614462325616199  7.0577060046165601 14.7450040042160406
  6.0818210672712594  3.7663204360394400 18.4040020074263566
  5.8617492748975399  0.0124367729517400 14.9234492872182098
  9.5386488207075590  5.6961896851263001 23.9619132951512483
  9.5369286480612399  1.9067455797156398 20.2874381815722558
  9.5298462977474809  9.4878920409853205 27.8388429080911770
  9.5335303783886385  9.4863909431779607 24.0557459999913412
  9.5269732152060982  5.6941174778982999 27.7874916671060497
  9.5293756952044184  1.9007777367565399 24.0638824316766069
 12.6413167933059984  7.5917278117495801 22.0954907763757689
 12.6105060676475187  3.8056420483387603 25.9207534878933394
 12.6241757163851993  0.0009901051678400 22.1462371791877572
 15.5676541816288783  7.5854769189460409 25.9188255856058554
 15.5760272300168392  3.8210388896154202 22.1253901367777246
 15.5641806686177393  0.0050625616585600 25.9321757437454394
  0.0300505215504600  9.4600681046478208 24.0067310498799280
  0.0539297626319000  5.6858026894671800 27.7933335461329705
  0.0576276789499200  1.9078266570579401 24.0828336398947087
  0.0463620264491200  5.7039757191416598 23.9461536651110869
  0.0389064919197800  1.9013743502661400 20.3372011010282066
  0.0551778164966000  9.4867996917465600 27.8211450434806373
  3.1196985536341799  7.5800840565639405 25.9278161948705090
  3.1085325938186994  3.8294666247262206 22.1168006475223251
  3.1342305630528595  0.0012961542353600 25.9443465838834371
  6.0723123562018593  7.5782867014375004 22.1596886692764450
  6.0860917427053201  3.8007604063112601 25.9346492318950901
  6.0712183900808201 11.3793760421818213 25.9577962609961297
  9.5341366842828190  5.6826620430838197 31.5809223621883284
  9.5304531722311179  1.9047176630707001 27.8703878432558483
  9.5066192287766587  9.5162020351610792 35.4522521559756214
  9.5316822731138195  9.4894467656940193 31.6379099685328278
  9.5154522660377587  5.6891486209951605 35.3265663247603428
  9.5228653458874195  1.8864937390758401 31.7175635115505621
 12.6107310395438592  7.5891935706242606 29.7193879750289902
 12.5850493698742198  3.7610226447032402 33.5468848767416645
 12.5962033893110394  0.0104279843735200 29.7358992359738750
 15.5477084424317180  7.5969275717438407 33.5012400783781601
 15.5625391508467192  3.7897511791960401 29.7290309790160592
 15.5487758743779594  0.0121624901378800 33.5040531006152165
  0.0533276263937600  9.4883820838374806 31.6202893372878187
  0.0604154730723000  5.6837656642190399 35.3761324604301635
  0.0621726040335200  1.8943238359591801 31.7017383375165700
  0.0528867800324400  5.6897190472705601 31.5998396029058384
  0.0504621250451800  1.8963549406152400 27.8761951475440597
  0.0570035572526600  9.4898511876761003 35.4034297769227493
  3.1476816839080795  7.5895416331240400 33.5175214795696519
  3.1340535422009799  3.7848656660121800 29.7429573127444691
  3.1647452431324998 -0.0013217721818600 33.5682562689170112
  6.0877124121961401  7.5854324006479006 29.7315276182000474
  6.0995712930335388  3.7694905715256604 33.5383252561134881
  6.0911878205054792  0.0050089347572200 29.7449050262452310
  9.5135791428266998  5.7043923238805201 39.0275312588475813
  9.5071406253114805  1.8633737131459001 35.6397049597774469
  9.4926567564670794  9.6915805613219010 43.2663921325238476
  9.5112841262363190  9.4420592575460205 39.3412785952132324
  9.5184692017125201  5.5273658236857397 42.8317937215968030
  9.5146607895094402  1.9006528350351599 39.7298335702779397
 12.5524202951226602  7.6236911528113200 37.2382869227933782
 12.6295162876531588  3.8234042800089201 40.8435449439809801
 12.5455397940671993 -0.0204140876343000 37.4345819030451494
 15.3381436146893382  7.5778482360509605 40.7399285180676429
 15.5582235568453182  3.8242132378306204 37.2597737679149219
 15.5379110774464593  0.5330926157490800 40.9188473345712183
  0.0692301259408600  9.5265180975727812 39.1870108818761622
  0.1415869253222600  5.2634476894070206 42.8417179344915269
  0.0645995333786200  1.9326762928780199 39.5289415366872348
  0.0567711936933400  5.7038022002507009 39.1244137427098480
  0.0367058611797600  1.8833878192421800 35.5790827248102701
  0.0920292365781200  9.4845978007805005 43.0102903197305437
  3.2409737576768594  7.4955901484148608 40.9286781020336932
  3.1167998845670999  3.7503203775158602 37.2984062422279905
  3.1526363724625197  0.2874898330698400 41.1303830449751615
  6.1209095078182401  7.5894088752324000 37.2685087389246021
  6.0563393515617197  3.7778236910207204 40.6714390983942735
  6.1046171454313995 11.3492634554327800 41.1977362346037737
 16.1580082985085802  7.3350603533331400 14.8274429651595092
 16.3415698244767782  3.7383118227720598 18.4946705271566891
 16.4538817842720171  0.1788876155436200 14.5677958141512285
 12.0557240445643394  7.7092844693666409 18.3064598743283611
 12.1413128683290399  3.7223914645264800 14.5982457040793197
 12.0864563048773395 11.3803270942134400 22.1324886802729566
  6.9238146842842392  7.7283065347169000 18.2271594233503507
  6.8448457580725002  3.5343889836181601 14.6675693183200408
  6.8890780379342802 11.3522353649418601 22.2010450784181863
  2.7949875371682800  7.4143357149938600 14.6746444697505893
  2.6209834314332201  3.7736674353805597 18.4123817704940365
  2.4804247053844595  0.0618586876244600 14.4435121886896898
 16.3733640203712412  7.6012500593924006 22.1330751888670001
 16.3747002056022382  3.7935917078777801 25.9486954577020690
 16.3698152640215575 11.3689014900744407 25.9774667079720558
 12.0882905744753000  7.5964057626380201 25.8940739800952286
 12.0787068095971808  3.8273369194405200 22.0952305258707824
 12.0899209099869402  0.0111879834530200 25.9180208599293280
  6.8998122488197993  7.5896068734944606 25.9079055464674894
  6.9036333595208204  3.8236719590854604 22.0964131643063908
  6.8991824412279401  0.0112564118345600 25.9208730293278400
  2.6062376323775798  7.5963317552370198 22.0895309410741305
  2.6142691480298996  3.7922623072407400 25.9450186181681097
  2.6101283005225397 11.3769394908258210 25.9691181792445285
 16.3756768527646983  7.5792681534323005 29.7428162901862478
 16.3801133667912602  3.7668499874579804 33.5673055684063684
 16.3763172740264764  0.0008600798571600 29.7558267352949422
 12.0866619447320396  7.5993438564577209 33.4897668814085776
 12.0907538935458394  3.7982649906070800 29.7186004132894190
 12.0827750671834799 11.3799660519540993 37.3693042120221506
  6.8933477657192395  7.6073876639436397 33.4814144435718575
  6.8982224726896391  3.7969287585176401 29.7149303293032574
  6.8968607009329395 11.3750078976597191 37.3257674029235744
  2.6134200544363000  7.5793403391126608 29.7456245485255870
  2.6022345730493597  3.7631666960389798 33.5684470283646661
  2.6117847911493399 11.3798414918053403 33.5648851259146070
 16.3655606986222004  7.6240496902047807 37.2577900746785673
 16.3212726969933399  4.0560813854596605 40.9961279712240909
 16.4001870386169166 11.2477989670891603 41.2318475407853384
 11.9568561930209789  7.5286318342379399 41.2201679083647079
 12.0975083572709980  3.8168853665562201 37.2512048495153252
 12.2714664072597994  0.1760222766919800 40.9889887939061737
  6.9773013261969794  7.4115870801207198 41.0958030265706782
  6.8650454672284589  3.8522752502842597 37.1689301732341946
  6.6815011884738791  0.2555883166523200 40.8361692348408738
  2.6099478681338999  7.5959128733473600 37.3265376016874413
  2.6648973011973998  3.8681030423498202 41.0652508166633297
  2.5794149931915396 11.2670283670197602 41.1525184356512383
 10.2092998992477391  7.7383831547219808 14.9047972332599681
  9.9137603650271391  3.7796296993202003 18.3159308444695021
 10.1094504727665999  0.3216232988439800 14.1628452139309697
  0.3336374919282600  7.6770730327252403 18.1953157856450609
  0.5068142999990199  3.5280063576408400 14.6118119894376601
  0.4373364585834200 11.3396238206662208 22.2061103732595271
  9.8759431009828980  7.6422103094073996 22.0541126282979008
  9.9144297843513804  3.8152270314861201 25.8973535612295791
  9.9267297010799194  0.0061388569841800 22.1248584138392665
  0.4467841410507800  7.5745792722200198 25.9493493890130296
  0.4210215421480000  3.8063542272514601 22.1351877307033860
  0.4393867921761800 11.3839352396560400 29.7499479177916584
  9.9158982613967392  7.5923602903842804 29.7089486424728193
  9.8975242929968381  3.7841842286352803 33.5284313007537165
  9.9233122888955005  0.0159689754151600 29.7142436829239394
  0.4501699017552600  7.5844224842681003 33.5388341316371523
  0.4379190732500999  3.7753031128002004 29.7662786397503005
  0.3995051693325000 11.3339449481436407 37.4048870110006533
  9.9139580446293998  7.6366145528890206 37.2527899822585340
  9.9834578715041182  4.0624990795593003 41.0518884881163473
  9.8101343673526795 11.2991754741510597 41.2635247187575942
  0.6327392391157599  7.2687897998912208 41.5004488301510293
  0.4373121987664599  3.8109007865387401 37.3476377101439070
  0.7325204348616999 11.2379612202030010 44.5542463170904952
