Nb Pt  O 
 1.0000000000000000
    13.9611820000000009    0.0000000000000000    0.0000000000000000
     0.0000000000000000   17.1868419999999986   -1.3014079999999999
     0.0000000000000000    0.0000000000000000   38.1075310000000016
 Nb  Pt  O  
  80  48  16
Cartesian
  5.3614175081987607  5.7976090535706994 15.8516376779647423
  5.2872217837425000  1.5916849528041399 18.6520518591326017
 12.3068584402773595 12.3907219168218585 16.7510612289998342
 12.3537023942419601  8.0838914605154191 19.3535976711460940
 12.3128737551538805  3.7830813830931596 21.7628598523536851
 12.3859107015041410 16.5700416455145181 14.0983363643252009
  5.3056911710221204 14.5494214114163984 19.8634727914718425
  5.3538012645823008 10.2210958874258200 22.3145596756850821
  4.6313514211810203  8.5749473791394593 17.8205420765817486
  4.5863573238314208  4.2246101509942191 20.5819175554478413
 11.6119082162851210 15.0565827759417985 18.4978017768811931
 11.5844130644543206 10.6668211665380195 21.3836912436283413
 11.6554637534414400  6.6435574476000996 14.4059529159065924
 11.5669279405056997  2.2210825750019398 17.0372308224884605
  4.6747871713957796 16.9887163821344984 21.9123715899372620
  4.6038177364879003 12.9654643502491389 14.9341625114008405
 12.2675942912442011  4.8539593062975790 18.9670796107075219
 12.3418857894089822  0.6475910975337399 21.7680247235376534
  5.3265734693868003 11.2404083004460595 19.5669489813062221
  5.4055609507291003  7.0616419880657988 22.2196346081704199
  5.3322665601827604  2.6626034369556799 15.8568062434259716
  5.3737358779128206 15.5477890794333398 16.9644855717441096
 12.3338389829396409 13.4103713638137183 14.0032821107688417
 12.2863599348058603  9.0825281026096594 16.4545630280361515
  8.5999877311014199  5.7976845038070799 15.8514681024003199
  8.6740862857309615  1.5917265449617799 18.6521931372677336
  1.6542762313156600 12.3906083117962389 16.7510816446413209
  1.6071011181140202  8.0838309628315788 19.3535527123119486
  1.6480280439233801  3.7829578096991798 21.7627777514028011
  1.5749231066167801 16.5700901124089590 14.0983208810200296
  8.6554707248757996 14.5492930257066586 19.8633556149113737
  8.6076842515143799 10.2212414599775592 22.3147407147155583
  6.9806774197165806  8.5680300189712995 20.2260092841649914
  6.9806862152612403  4.2933494411784796 22.8640641139165126
 -0.0001010789576800 15.2047226981397579 20.8860148471757796
 -0.0001365403599600 10.5152210174401990 14.6194073051143096
 -0.0001943396534400  6.4153246073926793 16.8207801972797277
 -0.0000889327293400  2.1919780330222998 19.5424622816055020
  6.9807451314492797 17.0961315666082001 15.1907599391930113
  6.9807267026890401 12.8777341152601394 17.3817060884539138
  6.9807086927642601  4.2537093650528401 18.0767303234279311
  6.9808213595030004  0.0303014336565200 20.7991952095632797
 -0.0001387741490800 10.7536093907169992 18.9363908617125603
 -0.0001463131873600  6.5357827143917602 21.1275936974827516
 -0.0000982867212800  2.1518606782943199 14.7559896592632303
 -0.0000492829724600 15.0636104756355973 16.0921017609010022
  6.9807017121732606 13.1172935999508180 21.6989595589777480
  6.9807173486970999  8.4269205463618597 15.4321443862293002
  1.6934776946416401  4.8540572712969796 18.9671556481748098
  1.6191084326931202  0.6476983434278200 21.7678717941339315
  8.6346238879134010 11.2403055231308997 19.5669312316802930
  8.5559672865845009  7.0616632997498794 22.2196025083997029
  8.6291971764700008  2.6624900037984798 15.8566959372220513
  8.5878554639434217 15.5477559088282788 16.9644347329181500
  1.6269366070523401 13.4104432048132782 14.0034725435927410
  1.6748402147307402  9.0823704992685190 16.4544000483802222
  4.6245896019029606  6.4257508332235593 19.1836419506563409
  4.4972669727466403  2.1084425905602400 22.0888889865565936
 11.5563541600943598 12.9032051869725581 19.9880938392666501
 11.6512652071785805  8.4410665204067996 22.5617010865233425
 11.4773954387869814  4.3370554085160595 15.5307493372439218
 11.6047888511360409  0.0194498334861400 18.4359102810392237
  4.6704171818179603 15.1905177732267589 13.7563711526367811
  4.5759880747363804 10.7280750714260193 16.3299861787885909
  9.3299428267222595  8.5749764249024398 17.8205063425749515
  9.3748595791235800  4.2245857456785796 20.5819453165682802
  2.3491697729089802 15.0565887913364982 18.4977334899832115
  2.3767309611306402 10.6664303377509384 21.3837360806586574
  2.3056547231804601  6.6437695332303797 14.4060420333174299
  2.3942225072229801  2.2210158900549799 17.0373185652937700
  9.2863948286042195 16.9888927191334176 21.9124466469631045
  9.3574241569828800 12.9650666467252584 14.9342055825425017
  9.3368062834052807  6.4257812539338994 19.1834209099362418
  9.4642460468785803  2.1085998501645400 22.0887799044693409
  2.4047574755483598 12.9033930391556204 19.9879771056188211
  2.3098624838234403  8.4410916131961198 22.5617250995887417
  2.4834418596294401  4.3371217497261796 15.5306962983199810
  2.3561516204153601  0.0194644423018400 18.4357163507355608
  9.2909040111665799 15.1905366787529594 13.7563956342090599
  9.3853128745342609 10.7282880163983982 16.3299224199297228
  6.9808164730893001  7.0619589134322798 17.8231794365901095
  6.9807729142014603  2.7946210701471199 20.5848272667454495
 -0.0002838308300600 13.5984361481092577 18.6461988075010225
 13.9610384790490407  9.2868358275425607 21.6071963278943109
 13.9610820379368814  5.0539582899410798 14.5242393348130907
 -0.0002744768381200  0.8119254934746200 17.1504163351545493
  6.9806448901625195 15.7006385400761381 21.8901172489919524
  6.9807188844271195 11.4136698858585781 15.1757656844236415
  6.9808404863223403  5.6333257025505601 20.4692429633166988
  6.9807483425211405  1.3915840511875799 23.0952992193013529
 -0.0001054069241000 12.2176370121450990 21.1426404222911088
 13.9611180577864396  7.9315672297641395 14.4280523587973804
 -0.0001936415943400  3.6508810537712599 17.0345203653309198
 -0.0002272880429600 16.5698955573575191 18.4946783771034617
  6.9807257254063000 14.3447254357227187 14.7106364344812999
  6.9808325284486008 10.0326734449482586 17.6718933713850426
  4.1850977354630396  4.1055716771443391 17.8275587250089309
  4.1982627112535802 17.0192360886844192 19.1995416584189122
 11.1647254139050407 10.5674664390938986 18.5829143008121171
 11.2031296937388198  6.2316306088861593 21.3270032564341001
 11.3986807589409604  1.7031187646742798 14.4682872532741715
 11.0971729782916597 14.8376882344666576 15.8590931290435435
  4.3421642440349002 12.7018211157322796 21.8154714441502975
  4.1893020058105206  8.2919421358990792 15.1875819695711201
 11.1787596128869016  6.6131812511808787 17.1187860804546119
 11.1656913880876214  2.3399084476162799 19.7916671044692407
  4.1841809046411003 13.0635573916220391 17.7352327686642326
  4.1165875627644599  8.7940440378765192 20.4591443428622313
  4.4183466446897599  4.7422070222451804 23.1513321003084620
  4.2226213439362601  0.2136559920335400 16.2926434531786128
 11.1697586992396811 15.3400597979950781 21.1303816681619807
 11.3225375892075206 10.9297465066645394 14.5025719524260897
  2.7823680781151201  6.6129750090768802 17.1187452982047290
  2.7953049281917801  2.3400663946942597 19.7917523187337707
  9.7771189277349801 13.0637665554891793 17.7352234088091407
  9.8447556888876413  8.7938553263513590 20.4591502486652530
  9.5430030291060604  4.7420298259041598 23.1514312597696907
  9.7387300052014005  0.2136816004281200 16.2926304628966996
  2.7913741573996802 15.3398396345490600 21.1305568665274208
  2.6386754046165199 10.9296346203231192 14.5026478749220402
  9.7762820944859001  4.1057163903539795 17.8276914325454392
  9.7630121306067199 17.0190525332118590 19.1995772787490182
  2.7963700267665601 10.5675965434878396 18.5829307433499515
  2.7579001293773802  6.2316476238597396 21.3269448067436791
  2.5623327295923000  1.7030072220696999 14.4683498121061103
  2.8639131083880005 14.8375244438623994 15.8589973060737393
  9.6189896939892812 12.7018013508639793 21.8155483936808849
  9.7719260660900797  8.2917817826632199 15.1876844265562312
  6.9807364755164398  6.5086988294260593 14.7288795422372711
  6.9806902640040205  2.1305149642671597 17.2180019536724309
 13.9609843096628818 12.9822436922253193 15.3241442670133790
  0.0000132631229000  8.5883323198206405 17.8549072037505212
 13.9610636091766409  4.3151236231767003 20.4014511921186603
 -0.0001865213915200 17.1233264785732189 21.5893315488336910
  6.9806358153942210 15.0430184046301392 18.4631358492811906
  6.9807039459623805 10.6495782954331002 20.9935955865433499
  6.9806986407132205  4.1763515610792599 15.7566620207601922
  6.9805752238643404  0.0914642482819200 18.6301552076942798
 13.9611521230705211 10.8613566249781393 16.7245799160026891
  0.0000541693861600  6.3535930801655001 18.9888819938162001
 13.9610971160134412  2.2689434613930199 21.8629223169623792
 13.9610950218361403 15.1155291754228784 13.7581982308550401
  6.9805538632558806 12.7702226844712392 19.5938646300683104
  6.9806844003075801  8.5159951361320996 22.5598198646212609
