 Y Sb  O 
 1.0000000000000000
    10.8977719999999998    0.0000000000000000    0.0000000000000000
     0.0000000000000000   10.8977719999999998    0.0000000000000000
     0.0000000000000000    0.0000000000000000   32.6933160000000029
 Y   Sb  O  
  12  20  48
Cartesian
 10.8706469006034006  2.6690325154219599 14.8467399904261210
  5.2200952322335601  2.7638190477458395 20.5307309272893619
  2.7638277659634398  5.2201565866899200 20.5307306003562005
  2.6690254318701601 10.8706766515209594 14.8467403173592825
  5.4489422325035193  0.0000070835518000 12.2357782147051211
  0.0000127503932400  5.4489508417434003 12.2357834456356809
  5.6776979094441193  8.1339876071691197 20.5305779225704796
  0.0269930183999600  8.2285905120347991 14.8469524969801210
  8.2285953070544799  0.0269654470368000 14.8469472660495629
  8.1339977420970797  5.6777060827731196 20.5305762879046831
  0.0000525272610400  5.4488209403011600 17.7289193039530808
  5.4488144016379598  0.0000563414812400 17.7289238810173231
  2.7528662419972401  2.7528719088386802 12.1425960523750796
  2.6386616236128799  2.6386557388159999 17.8314841210419601
  7.9716965698347604  2.9260676927471203 12.0223448051965214
  2.9260621348833999  7.9716947172135200 12.0223255161400822
  0.3753688525425999  7.8035588778223994 20.3490440353494009
 10.5224392190827185  3.0942432000283198 20.3490567857426399
  7.8035534289364001  0.3753693974312000 20.3490482854804817
  3.0942473411816800 10.5224307188205604 20.3490623436063629
  0.0000465334864400  0.0000451167760800 17.2395955009826416
 10.8974702406933197 10.8975284347958006 12.4802464082930413
  8.2591494993886005  8.2591379477502791 17.8313320971225622
  8.1447850106890005  8.1447886069537603 12.1425581281285204
  2.8018343996797599  8.0960886434401598 17.4083927261564426
  8.0960938743707196  2.8018326560362401 17.4083855336269231
  5.3794711155579193  2.3294375610683202 15.0187990277372414
  5.5182510816240393  8.5684337176345995 15.0187532570948417
  2.3294303685387998  5.3794655576941999 15.0187983738709203
  8.5684164991548393  5.5182332092779589 15.0187607765575208
  5.4485168924623597  5.4485202707716800 12.9281186828402408
  5.4488631146788000  5.4488877436435201 18.2537500096984822
  3.7676328785663196  3.7676476995362398 21.5847510116692796
  1.1059671480386399  1.1059747764790400 16.0205689814191210
  9.7560427233661589  1.1415600342346799 13.6583680316768419
  4.3895312382706404  1.0195401876382399 13.9819788969049199
  1.1415840093330800  9.7560176584905598 13.6581630445855211
  1.3857599246759600  6.6442172759484803 21.4723016974209635
  1.0153759310016000  4.2755124268988798 19.4677986449678393
  9.5120726669363602  4.2535881802115600 21.4722153870667221
  1.0195380080838399  4.3895504183493594 13.9819847817018008
  4.2535836031473204  9.5120644936073599 21.4722144062672413
  4.2755039266367199  1.0153677576726001 19.4677992988341622
  6.6442073589759598  1.3857422702853199 21.4723137939478832
  1.5241022362185601  1.5241113903470400 13.2639849645040808
  3.9212697772000400  3.9212648732026398 18.7003495334538030
  1.5105278624376399  9.3872942673135604 16.5392572669544400
  1.2753997133200401  3.7688038441677199 11.2786624266818407
  9.3872856580736812  1.5105470425163601 16.5392392856306429
  4.0088580041847601  9.1407675935725603 13.2361253552746820
  9.6223969156446802  7.1289942015073597 11.2785829819239609
  1.4569723966094401  7.2617055252798393 18.6836792116254031
  3.7687954528832801  1.2753972068324799 11.2786614458823617
  7.2617063971016007  1.4569652040799199 18.6836759422938030
  7.1289807972477997  9.6223986592881996 11.2785826549908013
  9.1407707539264411  4.0088429652594000 13.2361479136627214
  9.7919320289606002  9.7918645717519190 16.0205032678539609
  7.1302357846713198  7.1302369834262400 21.5845483131100835
  4.4028303343308401  6.4949406848696798 19.5884062492908022
  9.8825362143463185  6.6222351620918403 19.4677250850068404
  6.4948847792993192  4.4028891822996394 19.5884186727508833
  6.6023450935260399  1.1433788723814799 16.0374194434186812
  6.5081522718207205  9.8782520822176796 13.9817977759342824
  4.2953776485445196  9.7544872843685990 16.0375201388319617
  6.6222378865348395  9.8825201946214793 19.4677178924773209
  9.7544962205416397  4.2953971555564001 16.0375266774951619
  9.8782782368704805  6.5081009433146004 13.9817964682016402
  1.1433859559332800  6.6023687416912802 16.0374174818197233
  6.9764626638875988  6.9764608112663593 18.7001844322080046
  9.3735798571624400  9.3735965307536002 13.2640519858018813
  6.5462298500327600  4.3516643139913596 11.7303487034736005
  6.8960842938803601  9.1282303607528803 16.5769379483102419
  4.3516686731001597  6.5462201510156799 11.7303284336176805
  9.4410333605999597  3.6359794015218800 18.6837596371827601
  4.0018545510089600  1.7697153497328000 16.5771491471315997
  6.8887620808735601  1.7570506129807197 13.2359661388257628
  9.1282384251041595  6.8960319845747593 16.5769418715081613
  1.7570533374237198  6.8887521639010405 13.2359412919056005
  1.7697278821706000  4.0018104150323603 16.5771465316663225
  3.6359738436581601  9.4410200653181207 18.6837622526480445
