Cs Sc  O 
 1.0000000000000000
    11.1398200000000003    0.0000000000000000    0.5222180000000000
     0.0026220000000000    9.8728590000000001   -0.2736560000000000
     0.0000000000000000    0.0000000000000000   39.6107190000000031
 Cs  Sc  O  
  24   8  24
Cartesian
  2.1850716060757200  8.7722549913413399 17.4640378514106800
  7.7536809646137801  3.8358198638117096 17.8619457850180900
  5.9085188556583805  7.1643061827767101 24.3920452804274532
  0.3372928392259000  2.2278634531456500 24.2678578934252300
  2.6103421574156203  8.9941993298760892 24.9592387687338295
  8.1789416173245399  4.0578237356862301 25.3571853864621133
 10.0157033395580424  0.8448395005192799 18.7242563944816283
  4.4471007788797401  5.7812843034507306 18.3262712703422679
  8.5321352673430813  0.8786601637668600 14.9000367483071923
  2.9635026182432602  5.8150638956048706 14.5020909633071913
  1.1266955527471600  9.0280323341974196 21.1350535212499224
  6.6953484676405592  4.0915959231961203 21.5329560062683854
  5.6828656062606395  1.1222737494205801 24.4542645101780423
  0.1142157279082000  6.0588185644136994 24.0563674796665516
  7.7758625970721997  7.8052364912108994 18.1800433734857592
  2.2046444937924798  2.8688083734111602 18.0557731658447302
  5.4596440964975006  8.7504822766600494 15.4049734018479221
 -0.1115839099736400  3.8140965134254201 15.2807162114146617
  3.3665492097417404  2.0676064160289300 21.6792374495771227
  8.9377622073204606  7.0041046311275705 21.8035637017972022
  5.2339312773541407  2.7085563714525298 15.4671955993421495
 10.8051439315350386  7.6450199328160808 15.5914835818164388
  8.9573488939930215  1.1006037124728900 22.3953035455327125
  3.3887407616217597  6.0370418018602203 21.9972779434370516
  5.8266563961603399  1.0589299797195300 19.0451965903257623
  0.2579935502036600  5.9953037967947704 18.6472636869371229
  9.4062368020036597  9.1137371422475706 25.3035763446253732
  3.8349337081377004  4.1773325218522501 25.1792313901870948
  1.7363285294119202  0.7591730978906400 14.5557375357709304
  7.3074877902147595  5.6955099904732203 14.6799520596757596
  5.3157879538209603  8.8139690053594197 20.8141198528947022
 10.8844408793072400  3.8775724807084799 21.2120259856292002
  4.6087143629230400  9.2811353170075801 18.9447601490766004
 10.1773407813274588  4.3447602164606698 19.3427408937864094
  8.5986957194288198  7.3925264015919891 25.0483120856744037
  3.0274692583999001  2.4560874236473502 24.9239292929495129
  7.1496976232869400  0.8731385699139300 17.5794887104292918
  1.5811681373631601  5.8095740923579200 17.1816253092192746
  5.5859417727268603  4.1874944581637701 24.3330822226657020
  0.0173017938688200  9.1239829978605904 23.9352878279936938
  8.4621435310105397  0.8915711976669300 25.2600387862318847
  2.8935825075447199  5.8279620947882398 24.8620511625195739
  4.9925190123196996  2.8566233895619497 19.0059513003856537
 10.5637726536179404  7.7930590107345301 19.1303164472203839
  2.6803342386405200  8.9813285772407401 14.5992811822860507
  8.2488776320341000  4.0448278939273505 14.9971731854727111
  6.1498738668949402  7.0162575281850295 20.8532943083270723
  0.5786663367952600  2.0797930782641703 20.7290022335230120
  3.9926917930918600  8.9997066080834696 22.2797446554932996
  9.5612961513751813  4.0633191664628097 22.6777377798187416
  5.5565114591671998  5.6852917788654000 15.5261260612531018
 -0.0146702054429800  0.7489068054594901 15.4018654758535813
  2.5437524049550602  2.4803231204633702 14.8110035294736004
  8.1149802938662994  7.4166856824793506 14.9352847281004912
  6.5336410893806001  0.5917564608843000 20.9144766701398126
  0.9650643458421201  5.5280986848107396 20.5166144329890550
