Ca Sb  O 
 1.0000000000000000
    16.3870600000000017    0.0000000000000000    0.0000000000000000
     0.0000000000000000    9.4213520000000006   -4.7106760000000003
     0.0000000000000000    0.0000000000000000   37.6854080000000025
 Ca  Sb  O  
  48  24  10
Cartesian
 13.5233024588150013  2.5553702613936005 13.6583459748199996
 13.4194861730794006  6.9023024637692005  9.1706332888072399
 10.8756889280652018  4.9424723496616005 11.3637690060600800
 10.8608229149744009 -0.0988717190693600 15.7791476604629999
  0.0000042606356000  4.7440437908054403 13.6174354496033629
  0.0000095044948000  0.1241236746214400 13.4321851010707221
  0.0000099961066000  2.6733977559899205 11.0895831673448804
  0.0000014748354000  6.8910632619008005 11.1953790148531205
  5.5113746770879999  4.9424766834835197 11.3637732456684812
  5.5262433121084005 -0.0988698347989600 15.7791459646196408
  2.8637077245226004  2.5553785521833601 13.6583565267342415
  2.9675780875562001  6.9023001084312003  9.1706401192874409
  8.1935195122816005  2.6049446619094403 11.2101266339928003
  8.1935283612940015  6.9091107095784805 10.9911041773336393
  8.1935273780704012  4.7980855137991210 13.6596528576626817
  8.1935265587174015 -0.2699776034173600 13.4717744229896415
 13.7099079742472014  2.3428042101532802 18.2214395105726403
 13.6663193778708010  7.0549869669786407 13.5651604656434834
 10.8707041482838012  4.7232295746859201 15.9309889055616818
 10.9142938917544008  0.0110257140320800 20.5871993630482812
 -0.0000080296594000  4.7664444683882401 18.3470805410404409
 -0.0000016387060000 -0.0427235701955200 18.1467835867623997
  0.0000027858002000  2.3867116674411202 15.8742395802167202
 -0.0000026219296000  7.1435513501059207 15.9714759410059219
  5.5163507717276010  4.7232302341805603 15.9309915906470003
  5.4727562760096005  0.0110254313915200 20.5871946052655197
  2.6771498954350004  2.3428002531854402 18.2214380973698447
  2.7207391472938003  7.0549883801814408 13.5651582516257605
  8.1935268864586011  2.2995049011370403 15.8053633261111592
  8.1935327858002012  7.1087258877190402 16.0056432277420804
  8.1935395044948010  4.6793426559454403 18.2781604776480791
  8.1935308193530005 -0.0775624109022400 18.1808659871170413
 13.7048555159080010  2.1235192275206400 22.7885994902755193
 13.7197921572274026  7.1649106856521607 18.3733113279585609
 11.0571729956356020  4.5106839677794399 20.4940872933105993
 11.1610697418358011  0.1637478084360000 24.9818347441122413
 -0.0000132735186000  4.4611043855200005 22.9423325899625610
 -0.0000058993416000  0.1568870856960800 23.1612853286169234
 -0.0000058993416000  2.2679469520508002 20.4927298649144412
 -0.0000085212712000  7.3359874580224806 20.6806685962402845
  5.3297688536618004  4.5106873594661598 20.4940980336518805
  5.2259897665524004  0.1637331111268800 24.9818307871444034
  2.6821826893022003  2.1235142342040803 22.7886106545776421
  2.6672471950770005  7.1649118162144001 18.3733073709907195
  8.1935381935299993  2.3219381765977603 20.5349340830809588
  8.1935386851418013  6.9418838246456804 20.7201486775827597
  8.1935413070714009  4.3925746958477605 23.0627511765897211
  8.1935342606355999  0.1749430125905600 22.9569712040596023
 10.4064338301526025  2.3425051764408003 13.4140796178647204
 10.5022974756702006  6.9809424889132003  8.9414820779331610
 14.0519752337110013  4.6810493338602406 11.3000859896039607
 14.1435682475220013 -0.0034842986101600 15.7338967183799614
  2.3350916488542004  4.6810573420094403 11.3000819855293599
  2.2435007653610000 -0.0034900456348800 15.7339154197636812
  5.9806069969872011  2.3425097929032801 13.4140897458181225
  5.8847636714240004  6.9809449384647202  8.9414782151788401
 10.4800626933092005  2.3256716699683202 18.1826974037323232
 10.4747337852678015  7.1100619296461600 13.6703340328521197
 14.1005356640914012  4.7403259368792003 15.9697159382387994
 14.1058848920872020 -0.0440751573534400 20.4820368659282401
  2.2865231888144004  4.7403350755906395 15.9697305884411609
  2.2811693724418003 -0.0440734615100800 20.4820356411524820
  5.9070009118440003  2.3256887226154404 18.1827194025892425
  5.9123268702146010  7.1100644734112004 13.6703436897379227
 10.5286144385478000  2.3849189725825601 22.8523239135736809
 10.4370582956218012  7.0695339113207210 18.4184514278353255
 14.1741079918910007  4.7235135342352006 20.7383133739860810
 14.0783318532738022  0.0851129650356000 25.2109196757750027
  2.2129125152944003  4.7235144763704007 20.7383162946051982
  2.3087263441496004  0.0851042031782400 25.2109217955792033
  5.8584485111230000  2.3849267923047202 22.8523056832575620
  5.9500069482374007  7.0695097926596011 18.4184683862689234
  0.0000801327234000  2.3614719596466398 13.3826908291536419
  8.1935163987402007  4.6858979384535200 11.4055252389389992
  8.1935219703406013 -0.0434909393159200 15.8236059842022811
 -0.0000081935300000  2.3409235198670402 18.1638792894610397
  0.0000004916118000  7.0570428001985608 13.5132670464396014
  8.1935388490124019  4.7251164830644807 15.9885463944812010
  8.1935447483540003  0.0089560314247200 20.6391566119119609
  0.0000049161180000  2.3800365453355998 22.7468084926077196
  0.0000018025766000  7.1094761099788002 18.3287698607878831
  8.1936955093060018  4.7045643689576000 20.7697110658748016
