Sr Pb  O 
 1.0000000000000000
    10.4288480000000003    0.0000000000000000  -10.4288480000000003
     5.2144240000000002   15.6432719999999996    0.0000000000000000
     0.0000000000000000    0.0000000000000000   46.9298160000000024
 Sr  Pb  O  
  54  18  16
Cartesian
  5.3227352516832802  2.5101543096165599 12.4568750501051184
 10.5371594602602414  2.5101549353474399  7.2424496422106408
  7.9360077159772802  2.5109519600558401  9.8419091494728832
  2.7215823080828003  2.5109505521613600 15.0563326801747195
  7.3185972316328805  9.9732915679999206 11.8393919288344005
 12.5330248295854414  9.9732967302796798  6.6249683981325589
  5.2447493692240794 12.9358112907055194 17.5228099836267219
 10.4591737342337598 12.9358080056183997 12.3083873393769601
  7.7901318580864807 12.9371553606357601 14.9784006627154422
 13.0045567966828024 12.9371566120975210  9.7639775491675209
  7.6435099204097607  5.5543993346644793 12.1632693980145614
  2.4290794545240004  5.5544034019152004 17.3776857328112797
  5.1535908088560802  7.9113866137437592 17.4204854121378396
 10.3680143917021610  7.9113878652055210 12.2060598999548802
  7.6892466240543200  7.9110925202301594 14.8872470039060012
  2.4748245533911999  7.9110907994702400 20.1016717860696019
  7.9653697203673595 -0.0281519451566400 12.4840076796582409
  2.7509473368388000 -0.0281514758584800 17.6984330354084811
  5.2433242671448808  2.7261293900992798 17.6296305357768794
 10.4577498314720803  2.7261265743103200 12.4152077872386428
  7.8963665697002412  2.7260017409997599 14.9771966000695986
  2.6819418918251201  2.7260040874905598 20.1916197136175199
  7.8823752272234398 10.3736898750722393 17.6156204735179216
 13.0968024601663213 10.3736892493413606 12.4011953784888771
  5.2144418854743195 13.0360668308954395 22.7696328685544032
 10.4288647383010407 13.0360649537027999 17.5552084514004818
  7.8216235375266407 13.0360646408373597 20.1624542408680014
 13.0360471725169607 13.0360647972700789 14.9480301887237630
  7.8216313070184000  5.2144028294385603 17.5552117886318442
  2.6072049605276000  5.2144026730058393 22.7696380829784033
  5.1856204604203207  7.7026632848620800 22.6953816087082423
 10.4000431046700808  7.7026661006510402 17.4809566179676814
  7.7470368337845601  7.7028011020884000 20.1333550955917602
  2.5326115823228004  7.7028026664156002 25.3477780527069640
  7.7609421904096001  0.0552051068880000 17.4948423683584799
  2.5465214754967200  0.0552046375898400 22.7092652733294393
  5.2752840975717605  2.5175898696636003 22.9045118712388813
 10.4897086190141593  2.5175851766820001 17.6900876626619201
  7.9540957185254397  2.5178497044115202 20.2232137000565615
  2.7396713535157602  2.5178439164008801 25.4376380129220045
  7.6779351826480795 10.4568889300696792 22.6264915067534389
 12.8923610076964827 10.4568890865024002 17.4120676110419197
  5.1840790766859204 13.1363406737136010 28.0163740434580006
 10.3985028159647204 13.1363358242992803 22.8019519727948818
  7.8530082691305605 13.1349762675297601 25.3464564569441606
 13.0674320084093623 13.1349745467698398 20.1320312054824022
  7.9999339991495209  4.8744790654274404 22.9473265681065612
  2.7855046282928004  4.8744826633800002 28.1617444672304806
  5.1061202049430401  7.9186696518888002 27.8680312415728046
 10.3205448306739207  7.9186702776196798 22.6536082323133598
  7.7072253322754403  7.9178854546634403 25.2686559472581607
  2.4927992465058404  7.9178857675288805 30.4830783829309624
  8.3245891996692798  0.4554235163323200 23.2709819028243210
  3.1101728127283206  0.4554307122374400 28.4854166445377643
  5.3042012073061606 10.5925805485903197 15.0354196591360800
 10.5186285966817596 10.5925797664267183  9.8209967020208815
  5.1609563913330403  5.0194871910204002 14.8956431651423191
 10.3753809649196800  5.0194876603185596  9.6812206251810409
 -0.0801665024317600 -0.0500642584106400 20.0825337028163204
  5.1342572368470396 -0.0500656663051200 14.8681094942393592
  5.2243026219795201 10.4764669542758391 20.1729575508427210
 10.4387284991721607 10.4764644513523191 14.9585355323238414
  5.2143976150145601  5.2144538265052791 20.1623719051130408
 10.4288213021491210  5.2144528879089602 14.9479479051130379
 -0.0098515591189600 -0.0475588319671200 25.3663858811836818
  5.2045741094967202 -0.0475610220252000 20.1519641755302423
  5.2945733469768008 10.4788009304582399 25.4568465430435218
 10.5089959912265591 10.4788015561891203 20.2424217608799211
  5.2679183065178403  5.4092965672759199 25.4292900851076773
 10.4823427758160008  5.4092967237086400 20.2148656679537595
 -0.0899192482159200 -0.1637345300714400 30.5038408114044834
  5.1245032917453601 -0.1637398487839200 25.2894150906445603
  7.9755612077868809  7.8644563284456011 12.4945205841731184
  2.7611368949214401  7.8644569541764806 17.7089441670192009
  7.7473223234985609  2.5017321284044800 12.2668501763892799
  2.5328984799312804  2.5017310333754397 17.4812741242450400
  7.8080206174936002 13.0671680021222407 17.5414586410433628
 13.0224444610608803 13.0671678456895197 12.3270342760336842
  7.8404221617775205  7.8161954264311193 17.5736736132365614
  2.6259987353641598  7.8161949571329599 22.7880973525153578
  7.8027293328838407  2.6127345964583997 17.5367087179332835
  2.5883062193359199  2.6127344400256800 22.7511327179332810
  7.8352006983051208 13.0049594023598392 22.7833022724934402
 13.0496242811511998 13.0049590894943989 17.5688781160607235
  7.8959877417966409  7.9271101357291203 22.8437390109806415
  2.6815638982293599  7.9271090407000795 28.0581624895382440
  7.6676679817920803  2.5644524195940002 22.6159060174564814
  2.4532451811096001  2.5644516374304001 27.8303309039085605
