Sr Bi  O 
 1.0000000000000000
    17.7561280000000004    0.0000000000000000    0.0000000000000000
     0.0000000000000000   10.7082210000000000    3.5694070000000000
     0.0000000000000000    0.0000000000000000   49.9716999999999985
 Sr  Bi  O  
  96  48  24
Cartesian
 11.7597997654758402  6.8603365757791197 13.6785979374900410
 11.7747355101043212  3.5912613725448299 17.2744921595216105
 11.8845646193580805  0.0593770854450000 13.8620891848389984
 14.7410337698124803  7.1493831569032800 17.0833411861767601
 14.5694009058291201  3.6481006096128299 14.0437614307826095
 14.7279240653875210  0.0053338719623100 17.2666035320227671
  8.9319117664566399  5.3005942380727200 15.2045746949042382
  8.9547942661715201  2.1225954527453101 12.0741301794887708
  8.9361272488051195  8.9111479698999911 19.0577200670653291
  8.9649081566803197  8.8757004388414806 15.5055546960261577
  8.9183127031440002  5.3750583502490406 18.9404394255596813
  8.9313600835596798  1.7830363727665801 15.5334281482508594
  2.8265415518329600  7.1496304097261705 17.0601842646993909
  2.9112411233734399  3.6142784794199097 13.9328243286219688
  2.8374809247324797 10.6919763074963701 20.8661990073857879
  5.7071498031808003  6.6893452399602902 13.8099146795474290
  5.7905478505388803  3.5440201281235502 17.2722639220488503
  5.5415557983302399  0.0028781556403800 13.9960371852324581
 17.7379384449155211  8.7841642099248602 15.1942736249686199
  0.0251192391590400  5.3744507657895007 18.8850676408894991
  0.0409145579440000  1.7820799144668600 15.5925286784196206
  0.0080909348457600  5.3922385129392296 15.0502569798294097
  0.0095002387251200  2.0544140679941099 12.0627506248743703
  0.0216862693715200  8.9630500745937294 18.9043059479389122
 11.8267991408195190  7.1434668648007795 20.8009935890632605
 11.7837149615952015  3.5739476783387700 24.3820535017935889
 11.7953565893571195  0.0052230418749600 20.8351576222683192
 14.6941155098691212  7.1389105167652795 24.3728481316827583
 14.7149192996790408  3.5857065899832898 20.8189352258364302
 14.6889612610332811 10.7078051997785693 27.9670894128181899
  8.9178077188636795  5.3610284390948397 22.5647266317542794
  8.9243213768591989  1.7964609481876499 19.0680932874675513
  8.9155024407654402  8.9304991173157209 26.1795028906452423
  8.9173233316918399  8.9185658758333197 22.6186574706964407
  8.9146561837049596  5.3590107960940205 26.1521905487163373
  8.9155013753977599  1.7908893537191399 22.6185588359843770
  2.8903549451296002  7.1366736764805898 24.3706603349925288
  2.8829082026076800  3.5884567823827203 20.8118499883152381
  2.9028453158099201 10.7067985199223603 27.9710134405741186
  5.8014614770528006  7.1382194081819401 20.8218666254469795
  5.8105041403593596  3.5751475345018195 24.3862163228579405
  5.7965455154547199 10.7074735661741993 24.4140034912084012
  0.0255070329945600  8.8999366766774095 22.5745127210234671
  0.0405707993059200  5.3474298550825194 26.1577394064388393
  0.0377472198313600  1.7919918721533001 22.6353510404850979
  0.0337540442054400  5.3649362972665795 22.5509178090648597
  0.0281695643881600  1.7791625667376199 19.1030321082695380
  0.0397525969276800  8.9214988575652203 26.1666149037827402
 11.7809142875257589  7.1401885429416296 27.9498411570532070
 11.7609753987107197  3.5503679615323502 31.5394412692784485
 11.7684164592716805  0.0021226906488300 27.9807024178266133
 14.6746290471955199  7.1395501188056105 31.5067463800128671
 14.6885784389135985  3.5636494751208598 27.9651591370506161
 14.6795348878006404  0.0005895946482600 31.5294998395554202
  8.9158002110319998  5.3468179873345800 29.7159102697828601
  8.9186347993059201  1.7913722944862400 26.1935218324410783
  8.9035724534848004  8.9470951465503603 33.3461589087931145
  8.9178181949792013  8.9255804030815806 29.7540390574678604
  8.9062344521945604  5.3596636763283900 33.2482216705491282
  8.9118152032249611  1.7739228200379000 29.8003204428323016
  2.9172856644672001  7.1335718261035197 31.5161936370598390
  2.9056525596467200  3.5648565057919801 27.9693373422596636
  2.9487193378656005 10.7035536077127293 35.1197707025629029
  5.8108906912659206  7.1391875384425498 27.9537295978198479
  5.8368483747891204  3.5531119431636000 31.5324104295221943
  5.8160502669401604 10.7081104911592799 31.5479238341687598
  0.0374297402627200  8.9165254243217689 29.7411628139555901
  0.0462598627171200  5.3423440926007801 33.2832158885502594
  0.0397412330057600  1.7777857036814400 29.7865510977864787
  0.0374340017334400  5.3479549862403601 29.7327134680571206
  0.0365877446729600  1.7798586011026201 26.1990521292455405
  0.0392602194982400  8.9284920754536898 33.3019853896982241
 11.7155365793523192  7.1550516607718393 35.0545123142382806
 11.7892758257622390  3.5244756973187696 38.4184608966745884
 11.7045874405824009 10.6974186537374099 38.8605370869584661
 14.4196506939929616  7.1359281701345694 38.3553019024171888
 14.6686097198035199  3.5947642457983502 35.0790848386944560
 14.5851465074556810  0.4494153617109901 38.5414336528673260
  8.9189689696348786  5.3567555376692102 36.7587496579200632
  8.9031844820880011  1.7643669106997100 33.4662077685365702
  8.8598456799881600  9.0629423566854896 40.7264229193088312
  8.8997394381334409  8.8840080908576997 37.0163779606378966
  8.8875479030873592  5.0843983614668105 40.2885355284672713
  8.8861407299433601  1.7465992950054601 37.3010556228188150
  3.0064500143932800  7.0793864074459503 38.4893080841476518
  2.8966489598217602  3.5475261067611599 35.0768636329537173
  2.8817526337974404  0.2784595771858800 38.6727927280929578
  5.8498304126537599  7.1334682776064495 35.0847106768591459
  5.6913772122396802  3.4906604203872900 38.3075030919524266
  5.8629505931942409 10.6976661207247208 38.8373807365862405
  0.0580346614390400  8.9358988448371797 36.8629255774670668
  0.0766926231801600  5.0161883857655400 40.2771839223111741
  0.0538506074371200  1.8382329687331802 37.1467903423350592
  0.0532792152380800  5.3557906198749006 36.8178703552393003
  0.0402289938419200  1.7637591120757499 33.4108768892722452
  0.0868429137513600  8.9713328835372295 40.4151898924724051
 15.1368798318192006  6.9773730409385104 13.7214549151411696
 15.2976290771449595  3.5245270967795701 17.3638147180701878
 15.3608325474447991  0.1711776588642300 13.5935652182694078
 11.3608092707616013  7.2131177387198093 17.2535536833502690
 11.3664443555436794  3.4763864688765000 13.6676084919235006
 11.3505641624668812 10.7004564689529005 20.8352483566902968
  6.4409699118876800  7.2508731055682407 17.1565133887580821
  6.3782437263084804  3.3563180780231701 13.7227857812083904
  6.4318706065328008 10.6893662857098306 20.8647208445346131
  2.5792045483152002  7.0589280299788193 13.6350962136159399
  2.4776666630310400  3.5452479327434103 17.3386903034084661
  2.3413047492681600  0.0653683350945000 13.4912529112424977
 15.3142344304892788  7.1586512292609905 20.7791542783393304
 15.3051782725254402  3.5720741679926098 24.4001194135788673
 15.3020107568515211 10.6894440273942894 24.4220491850074310
 11.3543050235139216  7.1452384328830201 24.3663058366343392
 11.3530606740636788  3.5919125394638400 20.8039875123792797
 11.3537719845513596  0.0092568287256600 24.3855648108502194
  6.4244829919171194  7.1411304380607898 24.3743471755709287
  6.4293774686003200  3.5908091643720002 20.7912097487040022
  6.4277236628384005  0.0114426978783900 24.3862634508811276
  2.4684459057606398  7.1539048103027403 20.7483187055065770
  2.4769601466979196  3.5691952627767600 24.3971654079599176
  2.4740694490595199 10.6965472187124302 24.4197640504598112
 15.3057954755347208  7.1273816177078402 27.9650231664832809
 15.3074480383676796  3.5480200769958903 31.5600715145496302
 15.3025544494908807 10.7059107013192509 31.5463425511397482
 11.3521343368659213  7.1504968118872805 31.5009346354627588
 11.3550245018204805  3.5696225207946597 27.9541170331982158
 11.3465086628316811 10.6931443602430498 35.1723302228803476
  6.4239517285673600  7.1576038581649799 31.4986327960896588
  6.4271142725254409  3.5667466138806900 27.9511630275792307
  6.4361624402316799 10.6883937650786098 35.1414892602428708
  2.4757031903967999  7.1295624539966997 27.9657321221008957
  2.4749861979481600  3.5469049228609499 31.5473213066976506
  2.4762356966755203 10.7017962815644196 31.5544022368291373
 15.3099186260176001  7.1576663941756200 35.0559690606465395
 15.2562610276918402  3.7824723995847003 38.6285350310769005
 15.3190307157846402 10.5961859165408701 38.7642022875422896
 11.2193749639129603  7.0734451651885202 38.8600405950778338
 11.3557217849670398  3.5935814157066899 35.0125899961052340
 11.4571874028102396  0.0799126691855400 38.7162318445651792
  6.4827598469420797  6.9676197790872907 38.7577239333744288
  6.4195565542035204  3.6143160652756201 34.9874641893745348
  6.2588243547606401  0.1614865046948100 38.6298324517982650
  2.4724946580672000  7.1465765321791794 35.0855266074630592
  2.4883741408988800  3.6624066857866198 38.6837037180905412
  2.4827207673049601 10.6339114074527092 38.6671480365685625
  9.4539882731507205  7.2577267953370797 13.9756171526753601
  9.1510016113068797  3.5598459150216599 17.2317056408252185
  9.3472119749840008  0.1933910066710500 13.3779369755323501
  0.1658722433763200  7.1909702464721397 17.1037993140493789
  0.4389432032044800  3.3798270134887800 13.8025683483882577
  0.2533747972828800 10.6752769439290791 20.8602707577553623
  9.0770855138620785  7.1737581732833702 20.7714241558647892
  9.1212485554236800  3.5807037091320897 24.3733132372090289
  9.1299703654972806  0.0065071717372800 20.8184173883037573
  0.2565403597827200  7.1281771314459297 24.3888027749553089
  0.2259064223894400  3.5758970028896098 20.8262888471748688
  0.2454653300652800 10.7055519759157498 27.9756330743972512
  9.1235398061807995  7.1414765277635102 27.9450839225841712
  9.1039803658211209  3.5629219585861200 31.5249919877500382
  9.1346198076140794  0.0106382963168700 27.9624918735752921
  0.2519037020780800  7.1323050435592208 31.5328896817637379
  0.2431873964041600  3.5581116115484996 27.9779938685524989
  0.1989952347926400 10.6732810386168904 35.1492684263716271
  9.1314448343664001  7.1717502747636601 35.0603968386312204
  9.3169795036448004  3.7589792052039601 38.5487167341313111
  9.0439330472732813 10.6560856702528799 38.8168873429709578
  0.4691048275929600  6.9453955088950501 38.9733315449383468
  0.2729081361344000  3.5789682277546202 35.1196115663585360
  0.5759940547337601 10.5893089899324604 41.9450752867848209
