Na Au  O 
 1.0000000000000000
     9.2768700000000006    0.0000000000000000    0.0000000000000000
     0.0000000000000000   13.8797440000000005    0.0000000000000000
     0.0000000000000000    0.0000000000000000   41.6392319999999998
 Na  Au  O  
  48  16  28
Cartesian
  2.3182802578239001  6.9366698042617596 22.1266802367187196
  6.9608928179223000  6.9706422820684795 22.2287442402355211
  2.3396733694248000 13.8034650908992003 15.4147441686355204
  6.9486839003901002  0.0228145516051200 15.3532013837395187
  0.0556632609114000  9.6694796659225606 26.4733721833055995
  4.6046578235613005  9.6577498942681608 26.4633075645388800
  0.0185373199401000  2.5250797834643199 19.6222807166246405
  4.6209289896978003  2.5261704537478402 19.6137359298259213
  2.3216260537581004  4.5905641841721598 19.8800350577663991
  6.9547185043251005  4.6249251560134406 19.9045451588985607
  2.2429198826850003 11.6895963189996799 26.8556952836832004
  7.0196770034391003 11.9651678099193610 26.8218563290137624
  0.0027915029517000  4.4172650317267195 22.0102232162687983
  4.6353282690057007  4.4096116020876801 22.0116647664806386
  9.2701370332913999 11.1138659258540802 15.0917490624038404
  4.6449596082084001 11.1663721646214409 15.0638495277868802
  2.3813561089401003  5.0256954077491205 14.8172761532217603
  6.8811021807462005  4.7497336184281602 14.7832273368230389
  2.3164096697571002 11.5649845325574390 21.7349283486470419
  6.9598648479576006 11.5302173006092801 21.7587176746732780
  2.3192136964832999  9.2806798606022411 19.8930444030201592
  6.9584790691169998  9.2708294062854399 19.8988126858291210
  2.3442879628689002  2.2457155136992002 26.8331060003231983
  6.9314933964366006  2.2378225196787200 26.8278727816454392
  0.0065634782937000  4.2266985061632001 26.5753604034201594
  4.6317055585020004  4.1739385456755196 26.5471119320390407
  9.2737499103129011 11.3490096088300820 19.6276505119833615
  4.6411316933403004 11.3570779040172791 19.6289479904524811
  9.2592111996489006  9.4662116478272011 22.0256243190086387
  4.6572086945877000  9.4643552320672004 22.0165769466796810
  9.2430624881964007  2.7177880923244802 15.1764669946540796
  4.6941059607135003  2.7295969785196803 15.1656366304108801
  9.2761793370285019  2.0465974002624003 24.2412311980358375
  4.6398834904818003  1.9399164387014400 24.2574630034540810
  0.0019985161041000  8.8805185132358400 17.3815000071071992
  4.6371497824301997  8.9862777209977605 17.3979175235001584
  2.3102499208458003  6.9626717002790404 26.2867667978822404
  6.9783536498676000  6.8635327140128002 26.2249949972102385
  2.3220659629334999  0.0305885962195200 19.4107808999577607
  6.9569826172173004 13.8764739323136013 19.5128682214444815
  2.2930922570121002  9.1780478979609601 14.8106946562118402
  6.9827414238402010  9.1855551738956809 14.8069229745772795
  2.3201773777389003  2.3309959919737602 21.7396339982553606
  6.9575540724092999  2.3406804445523202 21.7465981598073625
  9.2561904652395004 11.8728251791001611 24.2339076899116819
  4.6577094600303006 11.8684626367635193 24.1843178629535984
  0.0192318791970000  4.9294067657107199 17.4550719497356788
  4.6181462997726008  4.9325027814073596 17.4049820356012788
  0.0038093611281000  6.9458498669433597 19.7669545626393628
  4.6348105268910000  6.9411765571385597 19.7425893660345579
  0.0086719253073000  0.0156492725625600 26.5193302364486385
  4.6007451181014005 13.6053196699219203 26.4767957609606412
  2.3441258959500000  9.2985603020128007 24.3368148878764785
  6.9183490921023001  9.2517351812620809 24.5761809277747219
  2.2803643913721001  2.3117517269177603 17.0632392815539191
  6.9824917832685003  2.3587710252870400 17.3029030419609597
  2.3155033195581001  4.6297691866694404 24.3477422715302403
  6.9603014174598004  4.5832447011737605 24.3334812509625600
  2.3217659489577001 11.5230178773964802 17.3061021841555203
  6.9539567805294000 11.5695713715571209 17.2917832850553594
  9.2389386411753005  6.6656061765984003 15.1620789744288018
  4.6470936593832004  6.9555690188819197 15.1195091055936004
  9.2732738213445014  0.0012278021542400 21.8967138370521610
  4.6421830410173994  0.0056050570195200 21.8721600147263970
  4.6250433743114998  4.9295894231417599 15.1353436727385589
  9.2749907844440997 11.8610380841030398 21.9695758307750388
  4.6390100731713000 11.8646464011507202 21.9357206368051187
  0.0028330633293000  8.9643715986374417 19.6763342692531218
  4.6364945571021003  8.9613820405772806 19.6757808838598400
  0.0129037550952000  2.0174635400115202 26.5073198163705577
  4.6278344134197003  1.9091783576390402 26.4980146971955222
  2.3186828739819001  9.2185478805734409 22.3221647719737604
  6.9571996959753006  9.2383262381785602 22.3974655755148788
  6.9948099823293006  2.3152916168275199 15.2548932389491192
  2.3180718065550003  4.7022480994579201 26.3834943174259173
  6.9581839718823000  4.6288835202048002 26.3708909546841568
  2.3195059178883004 11.6126175932064015 19.3274187411014395
  6.9567912353892005 11.6026667883404802 19.3172354505235226
  2.3564345398347002  9.2551991489721601 26.3845919275814396
  2.3187978144012003  2.2983688777529601 19.2418038997939185
  6.9570585020139006  2.2787004477203201 19.3171788211679996
  0.0006173756985000  4.9249062587187202 19.7037249724550385
  4.6366022615628006  4.9211002941164805 19.6694750385657606
  9.2634855175014010 11.8694139544172792 26.5033707516076795
  9.2664205336320009  8.8492289899443204 15.1409379035577594
  4.6513077703494004  8.9573216602675210 15.1317764397331196
  9.2750019166881010  2.0217937425446402 21.9632724838348778
  4.6412263174143007  2.0245723284960002 21.9627453311577590
  2.3184149579763003  4.6628114440332800 22.3220361067468822
  6.9580171737597007  4.6728917469107198 22.3117891081440014
  2.3196055514721001 11.5688171462681595 15.2683718583475194
  6.9565967921940004 11.6422075418451207 15.2558667641932804
