Ba  O 
 1.0000000000000000
    10.4929360000000003    0.0000000000000000   -0.4924580000000000
     7.4883509999999998    4.7433519999999998   -0.4924580000000000
     0.0000000000000000    0.0000000000000000   32.0097639999999970
 Ba  O  
  12  12
Cartesian
  0.8075330468577899  0.5115282499336800 18.3963431100396946
  5.2687233327021703  3.3373973748679195 19.5522288161854405
  3.6309347503470097  2.2999593163376799 16.1552378936805603
 12.0980270108691190  4.3400156722041601 18.3950606634624592
  8.8871385847585405  2.3062091094993598 20.4001350248804592
  7.4441914021151101  1.3921442609170398 16.8982204370608002
  1.8847717731592999  1.1939050187464000 12.7939696475293587
  6.5385693900875097  4.1417386729515995 14.2907673255683392
  5.0957037879452693  3.2277668415019996 10.7888407020761790
  5.6869592886981097  0.2790501174549599 13.2850711205086185
 10.3518892828280507  3.2339461958864799 15.0337769590573984
  8.7142023021414694  2.1965619269679197 11.6367396568655774
 -0.1349340559817600 -0.0856820131872000 20.6650764377541378
  5.8715662534592692  3.7191970821099996 16.9538477641925560
  3.0675413672685701  1.9431330727744800 18.6270237216022174
 12.6386101788171601  4.6824858763382400 15.9153996951905992
  9.7450406743990001  2.8495366489404801 18.0318452700133562
  6.8811396514743901  1.0354813783967201 19.5156653319521389
  1.3443091806025502  0.8514480485644000 15.2736015164623193
  7.1016491309824703  4.4984201494117597 11.6733679387119000
  4.2379353773818398  2.6843645942668797 13.1571539324109796
  6.6295804227482096  0.8761348240484000 11.0163960751868988
 10.9153994055975900  3.5907736727212001 12.5619795337509785
  8.1113461759990297  1.8147078609119198 14.2351764009236597
