Ba Na  O 
 1.0000000000000000
     8.1510210000000001    0.0000000000000000    0.0000000000000000
     0.0000000000000000    8.1510210000000001    0.0000000000000000
     0.0000000000000000    0.0000000000000000   34.2395339999999990
 Ba  Na  O  
   4  24  14
Cartesian
  4.0755076471426506  4.0363282160121603 15.7144354577599188
 -0.0000630073923300  0.1037193784289100 12.5881451585656201
  4.0755246827765399  3.9696187929643800 21.6530693177630980
  0.0000652081680000  0.0385841620668600 18.5241891402170396
  2.1591940514706001  2.8907966032853403 12.4542857003926191
  2.5473340970407801  5.9808610539372600 13.0819336797046795
  4.0754860469370007  0.4209131002355100 12.8371675773709200
  4.0754748800382306 -0.0022762541244600 15.5699740702791587
  5.9917975233435898  2.8909376159486402 12.4541405247684605
  5.6036347364248202  5.9809022165933099 13.0819343644953587
  6.4502781903068396  6.4345817691671403 15.7247333400057592
  6.4792612647377998  1.7634615743695501 15.5318942301457188
 -0.0001119135183300  4.1256626725802699 15.9145631372225402
 -0.0000512699220900  4.2461372897767804 13.2467658779387385
  1.7005052074310099  6.4346260292111701 15.7246634913564005
  1.6714610003425501  1.7633944914667201 15.5320531015834788
  2.4036608589761701  2.3121317400038102 18.7067200959710398
  2.3750286044890498  5.7914182027534507 18.5148033991569569
  4.0756390416011694 -0.0498016786772700 18.3254758959039599
  4.0755413108593803 -0.1685205659503800 20.9961403737649199
  5.7478271945271295  2.3123497798155599 18.7060993332196190
  5.7762212761806300  5.7913760619748800 18.5148585248066979
  6.6233411572401000  6.2457857014996794 21.1577146803388771
  6.2330967625783495  1.1866754399183099 21.7819458965530792
  0.0001170486615600  3.6555492759968700 21.4047347711958587
  0.0000883570676400  4.0777606708572600 18.6709791584051388
  1.5277499415405000  6.2458279237884602 21.1575345803900383
  1.9180367215114500  1.1864164819811400 21.7823540317983593
  2.1633025736056504 -0.0769700913030000 14.0629620687099592
  4.0755645412692303  6.2471125246980597 16.9603720397651401
  4.0754259739122300  1.8686362360878002 17.0660859161994587
  5.9875645351178699 -0.0769916099984400 14.0629172149204198
  6.2702977778917202  4.3001472590861400 14.4310161730942195
 -0.0001494082149300  2.3581256692209300 12.1518756305931603
  1.8805170827871900  4.3001940459466805 14.4310815706041602
  2.1957385020424200 -0.2252155630873500 19.8088355697813014
  4.0755113966123098  1.7159788611667801 22.0860463721461180
  5.9554491048268199 -0.2253637486491300 19.8088807659661796
  6.2393135462950493  4.1520495653125193 20.1767547704015975
  0.0000533076773400  5.9780505003862494 17.2797929948464777
 -0.0003082716142200  2.2076797478074202 17.1736497546557985
  1.9119193802509500  4.1521743574440304 20.1767034111006005
