Rb  Y  O 
 1.0000000000000000
    12.4957560000000001    0.0000000000000000    0.0000000000000000
     0.0000000000000000   15.3660099999999993    4.8495439999999999
     0.0000000000000000    0.0000000000000000   36.5164469999999994
 Rb  Y   O  
  48  16  42
Cartesian
 -0.0052574643794400  4.8786462499796999 19.6522583839916400
  0.1421904570996000 12.4105037999349008 18.1549862287391406
  9.0704419825983589  3.8678250897703998 13.4271586722005196
  8.8926451186918811 11.5122615583304988 19.3993220970073494
  3.3899871406564803  3.7293602833992998 13.4639363998165695
  3.5729050152868802 11.4644104202495996 19.1858047792776603
  3.0664612714663200  3.7195533884970997 17.2044884817324508
  1.9713004767455999 10.6106756729500997 14.8330941580814475
  9.5099489605083605  3.8067768540009999 17.1895952283187086
  9.6367129069957205 11.5738724973860982 15.7009479248880002
 12.4517394495748803  2.7745884885862000 14.4594225397959804
 12.4071398471748005 10.3100830194482995 20.7001565274555901
  6.3626936295577190  1.0100983430989001 11.9150841897922994
  6.2787974986463997  8.8224980547472995 17.9453858906218002
  2.7269495816253602  7.7640972738537997 19.2575306804310173
  2.8528605678081602 15.0643955068332005 18.2748257953794280
  9.7488848094565199  7.7219940991336005 19.2618788161232573
  9.7598825742272410 15.1025898759295991 18.3921335621025079
  9.2441417380275599  7.3723869469337995 15.4896333451033783
  9.2242127566133991 15.3536405156100990 22.0646238421789391
  3.2988087330634799  7.1884140116865991 15.5024170366528686
  3.2741822220962402 15.2570313375380984 21.9350610167864382
  6.1824268545202807  6.1192820703893993 12.5416793704682110
  6.3147759041093998 14.2553460385742987 19.6048095165545675
 12.4280803600371605  5.4082752752754004 27.6160837213018802
  0.0562269033580800 12.6405526381276996 25.4024617555060921
  8.9737233316676406  3.7596764991686995 20.9039647419847192
  9.1071533891083192 11.8316345492543000 26.7398665490566607
  3.5021904074648398  3.8015911329461995 20.8977948186553810
  3.5116475704783201 11.7907794018662990 26.6033012349211475
  2.9986779180867602  4.1553434200035992 24.6720638598614279
  2.9742704577221999 11.5448697681515000 22.9360851114808000
  9.5313869294170814  4.3213090817918998 24.6621287388708623
  9.5208791232391192 11.6324552568509993 23.0694701363683201
  0.0292628113159200  2.7032153697174999 22.2198405594713257
  0.1449376490562000 10.5104075405768995 28.2471662646882002
  6.1468418154561597  1.2164099227038001 19.4515119927097189
  6.2041739684324400  8.7511370750264987 25.6928721552516279
  2.8212088178601600  7.6557917962899991 26.7186680564956696
  2.6398837772470802  0.0116458989790000 20.7546325110571672
  9.6383131135090796  7.7967692526162997 26.6890620192764558
  9.8173254396016816  0.0664659835752000 20.9569301785336215
  9.3119009745980410  7.7991124154812006 22.9492162724344091
  8.2848474232523994  0.8465136445601000 25.2362848053400590
  3.2529098219545198  7.7288582494606999 22.9618093981555553
  3.3961972814733601 15.3197128265104006 29.3007661391945291
  6.2419408914517200  6.6436786619598989 20.5049572332483834
  6.3800518590899999 14.4761686633827988 26.8359724258975412
  0.0233475703406400  6.1197587240195990 15.6027808050063896
  0.0040152612754800 14.0763645980154983 21.4285303651628283
 12.4874834346553207  1.3906397319902999 18.4592689224562818
 12.4396405587854399  8.9381025407212000 17.1854070242942605
  6.2559806230630803  2.4799020683480997 15.4102601672603114
  6.1796170588261194 10.1795467669169994 13.8552168066816908
  6.2549493483203999  5.2818956821091998 17.0568730429652398
  6.2696074948962002 12.7951285523236997 16.2348320523343013
  0.0049430711584800  6.2404087930371004 23.1058048274839791
  0.0218626996551600 14.1018681794528984 28.7713608963786562
 12.4426429140795598  1.3490062961957998 26.3055996342290683
  0.0046741624893600  9.0490746356603999 24.7431263239114188
  6.1976733012885603  2.5811766743762998 22.9737146362479585
  6.2384980607585998 10.1339275417885997 21.6931371187624293
  6.2689422208467596  5.4076847595110999 24.5439355473787479
  6.2515892395319996 12.8175294290218993 23.5728137157370590
 12.3823420193927998  6.8163986071037996 17.7218727668385014
  1.7045805642465599  4.9139243040381997 15.1686126918405790
  1.7175450360541202 13.0929149114192001 20.6239563089316107
 10.7683793031250801  5.0524982090802997 15.0766269498008594
 10.7743886371430406 12.9858696003354996 20.8537654682724174
 10.7627623358455207  2.3173321411096999 19.2792968047919224
 10.7332742260489216 10.1002088304249007 17.7590905791830380
  1.7059014906133201  2.3849029408039000 19.2264369335010805
  1.6306545471325202 10.0410713579989999 17.8109585551850493
 12.3234892578688804  0.8758909971184999 16.3183582844183483
  0.2643290995035600  8.2780392932005995 15.1632155527160180
  6.2890953761235604  3.1216565612935998 17.5078665830782008
  6.6326740596698404 10.6227349175981001 15.7074441430743104
  8.0060717303221214  1.4641393529828999 14.7491806665673497
  4.5110383920638402  1.4287880030567000 14.8127374547054806
  4.5982179078217200  6.3217685891249999 17.8381010768472024
  4.7763206678350798 13.4001335420930996 17.4546471220247383
  7.9214570934408002  6.3549006262269003 17.7699829851278395
  7.9652573423295596 13.3967033876807999 17.2065808218950096
  6.1883114808933604  4.6298977459173996 14.8985371691712487
  6.4087657318448406 12.2985435168925985 21.4477018890248203
 12.4379470089747599  6.9006568936579997 25.2631746220882931
  0.1637208946027200 14.5919936516002000 23.5549574250412412
  1.6704665255787601  5.1664843468809991 22.3916889662472194
  1.7112509237569198 13.4866859739402987 27.7971532949194362
 10.8443607471435612  5.1963017819657997 22.3285258922916015
 11.0138153193868806 13.5236587452416988 27.5501639321910901
 10.7563400170917589 10.1014540918752989 25.3410933116444603
  1.7545694612518801 10.0646901446497985 25.4034688399600910
  0.4103435078542800  0.9027394117511000 24.4555111141560673
  0.0382847471479200  8.4006675823454984 22.6465574744759373
  6.4932991463121601  3.2536747118292997 24.9904984096174374
  6.0770181550369200 10.6522387324187982 23.8330270989845410
  7.8957806890544395  1.4743231761103999 22.3750861604729501
  7.9530213730967994  9.1384113885196001 20.9278106734430906
  4.4958989089669199  1.4164845925098000 22.3833741653862610
  4.5124516620674395  9.2112932959101990 20.8713960175076600
  4.5182676867400797  6.4787640352556002 25.0633431549249082
  4.5241361935879203 13.9045163666188998 24.1516677521403693
  7.9516639591225200  6.6090106384983995 24.9877138351361019
  7.9635430495639197 13.8058214063494997 24.3748626831519992
  6.1503105123642001  4.7000051665424003 22.4270450414577418
