Na Sn  O 
 1.0000000000000000
    12.8698359999999994    0.0000000000000000    0.0000000000000000
     0.0000000000000000   11.2399290000000001    0.0000000000000000
     0.0000000000000000    0.0000000000000000   38.9362569999999977
 Na  Sn  O  
  64   8  46
Cartesian
  9.3971771610051995  5.6116406581797600 16.5398649943037981
  9.2126313059684399 11.2379797715128209 13.3048616559615986
  4.8695151889890793  5.6252397358775710 17.1463248418212686
  4.6973211590533204  0.0038191030756200 13.6886797029647997
 11.2547952611239594  5.6047696895820600 18.4672505988736475
 11.2116751330026787 11.2120226166780910 15.1633203515771982
  2.9789837702839197  5.6146328396788503 19.1272256060996284
  3.0734065395569199  0.0173636671177800 15.8746479987979097
  1.1484694160828000  7.4783925695449796 17.8392714608374199
  1.3236085792887999  1.9268687840210099 14.6679226728890999
  7.6035405496719193  7.4652901843096799 17.8969664277348777
  7.4817460844957600  1.8581662915985702 14.6242490414999082
  9.7449315838792394  7.3984975806229203 13.6013729338936997
  9.3825236944339601  1.6774039550319300 16.8652580195907902
  4.5001158898351603  7.7646094935796794 13.3758132502798492
  4.8475430327797193  2.2803811861659300 16.5471842318946614
 11.2837074763963194  9.0067612479978596 19.1525824541083090
 11.2600272355530393  3.3301147976444700 15.8316312220643098
  2.9855727402208401  1.7059466307345299 18.8158815610633781
  2.9532736989067199  7.2060189668652592 15.6195279088696584
  2.9880949706801196  9.5459167010790900 18.8110020693361406
  2.9993873508815998  4.0424754210291898 15.5171820105323093
 11.2773143853633186  2.2267325554517701 19.1342567153886911
 11.2822087839941201  7.8982497766053008 15.9186218287285683
  7.5959218641566402  3.7599550848440098 17.8575909697559183
  7.5465646274146794  9.4902276860535615 14.7419463378846505
  1.1624961216408400  3.7580772299059797 17.7998835432562181
  1.2897883233594798  9.3202468017830089 14.7008837718898793
  4.9177152987762796  3.4053021671034602 13.4410194105151781
  4.8261069052397598  8.9723000752810194 16.5510946001851700
  9.4203149382610789  3.7873353270894299 13.6379535473451998
  9.3939461886774005  9.5386267079282696 16.9157357618907263
  9.5058317810220796  5.6023797434787905 23.0590976126255853
  9.4145227398709199  0.0054207929581200 19.8080587662005065
  4.7752361757841992  5.6461699448663394 23.7754507625372895
  4.8198405820913601  0.0148528917777600 20.4687564303564109
 11.1226081459810793  5.6179872840896099 25.2496825804511857
 11.3045627882375985 11.2353503025225603 21.7897125576892456
  2.7763944051751599  5.6166034240311307 25.6295458718308993
  2.9618572360269200  0.0093990534283800 22.3955949805154084
  1.1087219571836799  7.3804781760472800 24.2072783825091982
  1.1622310030192400  1.8605444357763901 21.0795934918858201
  7.7262304980369594  7.5414851010042296 24.2345088432047184
  7.5966233989170000  1.8611113777951498 21.1351656540516366
  9.4225375589382789  7.3139546562607807 20.1245349992719262
  9.4335260823117988  1.5765251426597702 23.4183449346489390
  4.8483042835791199  7.8526621981713598 19.7836414500732403
  4.8247115576206401  2.2914602717819403 23.1057603804646696
 10.9380876445212394  9.0975817851057901 25.5582882385326293
 11.2822351671579195  3.3379733064041099 22.3919236808428792
  2.9843897448957200  1.8303642148177801 25.2954860250982776
  2.9571273139001999  7.3193256563334304 22.0222095142127898
  3.3033656700934402  9.4655657082375004 25.3314810372444974
  2.9485109586982001  3.9428618874645598 22.0746870226722507
 11.3506528884126006  2.2123783793237402 25.4930816889347263
 11.2595241536638007  7.8889682928342602 22.3852262552763079
  7.7559141312791589  3.6904483755016204 24.2685091509048299
  7.5825649048640402  9.3821933100814210 21.0955888956239903
  1.0485954990736399  3.7598154849258303 24.3130946694329566
  1.1687164994747201  9.3958010425245586 21.0416462158136177
  4.8408897136627997  3.3947804695665602 19.8030492273748884
  4.8454198959347998  8.9596599883254893 23.0167855821436866
  9.4201006554916802  3.9138384799986299 20.1200074913079696
  9.3882288927327604  9.6558950227717801 23.3150587257050361
  6.6441738114584004  5.7803516552718905 14.5635489742871886
  6.4618525075742399  0.0006116769361800 17.8892426424337891
  0.0017470802370000  5.6135109823653604 14.4391250501431294
  0.0532486890532800  0.0030404007945000 17.7650457166680376
  6.4865570586647596  5.6174512518756003 21.1731802898484496
  6.4358917317917603  0.0039859036219800 24.4945282823512791
  0.0260915333162400  5.6194824194451902 21.0476918484380100
  0.2098691878421600 11.0760316149014102 24.3726188616842769
  7.0772516434583590  5.6441989109169004 16.5437901583719693
  6.9414937923172788 11.2077467228879097 13.4311015671321385
  0.6220753633091199  5.6129991159986998 19.1471457845433974
  0.6331233453249600  0.0058205972326500 15.8451424926058788
  3.5931739137742000  7.4766268890983696 17.8490802827008608
  3.6283251681426401  1.9354426018622100 14.6089829138553498
  4.5680650203610798  5.6998480241944804 14.5767822399537792
  4.4369418545603203 11.2390345264501796 17.8643958593918093
 10.8356737366791194  5.5920556438937101 14.5793376265006884
 10.9008689796977603 11.2289371362330304 17.8111197683012783
 10.0649625782322385  7.4943473115626098 17.8568908958550594
  9.9478109063930784  1.8016115772414600 14.6019163725724201
  7.0597910082587996  1.6505563730218200 16.9652599552567409
  0.6508113905266399  1.6399102494708901 18.7231307245385388
  0.6033377829816400  7.2417831845510694 15.4761143828241288
  0.6501514253365600  9.5990848248285001 18.7118466078973675
  0.6232001869755199  3.9899030135167801 15.4592121536604274
 10.0560775008545598  3.7245947178071699 17.8331833876928982
  9.9217370047521598  9.3571168036838390 14.6137424819110304
  3.6064629203327199  3.7704668912433901 17.8275426921413107
  3.5737445797617200  9.3248525874893389 14.6215188311590687
  7.1219677599419988  3.9993034157366401 13.7718662373201592
  7.0548951939460398  9.5619085348624200 17.0021691907173178
  7.0676516466908801  5.6149256398293002 23.0929032390406981
  7.0565587489474000  0.0084022965246600 19.7887837615352282
  0.5028068608446800  5.6577498817185896 25.5030489813641559
  0.6410394527501999 11.2183370963910001 22.3909529999558679
  3.4832866208652398  7.5005676006705002 24.3238975339376076
  3.6213480439519596  1.8969170708189702 21.1026449241175271
  4.4640860117629995  5.6315270149623000 21.1258330226113067
  4.4005816077980402  0.0239284600495200 24.3544582126943396
 10.8706249937961203  5.6210408356010397 21.0701257516337002
 11.0006636185171605 11.1617355115299599 24.3566585005774066
 10.0081338868988396  7.5349569502410310 24.3123560486376711
 10.0410182483542396  1.8517226651014500 21.1082712132540280
  7.0856441922123201  7.2602440935378301 20.2253888602410363
  7.0586741638907196  1.6271265162227400 23.4753717553762797
  0.6847648492585600  1.6195395641477399 25.1636871845158474
  0.6187217414442400  7.2961007034400200 21.9402000229065415
  0.6247753262035599  3.9691599493458600 21.9708416890778295
 10.0594954718994387  3.6854437971143703 24.3269115895919796
 10.0281094167511604  9.3822034260175204 21.0857594375443362
  3.5158628784467996  3.8163796408233002 24.3349355734345387
  3.6290402162308002  9.3628626553886392 21.0801787038285262
  7.0859197354010801  3.9810700029128405 20.2141981906166670
  7.0378940118916793  9.6161590637745302 23.4577998225921789
