Ba Sn  O 
 1.0000000000000000
    11.0513480000000008    0.0000000000000000    0.0000000000000000
     0.0000000000000000   16.5770219999999995   -5.5256740000000004
     0.0000000000000000    0.0000000000000000   33.1540439999999990
 Ba  Sn  O  
  36  12  12
Cartesian
  2.7628366684595602  5.4404009147241599 13.2233544073061182
  8.2885105579460809  5.6194105391146794 13.3208177925068405
  2.7628394312965603 -0.1208892590967600 13.2264590624997602
  8.2885066899742803  0.0733445365283400 13.3590887764010589
 -0.0100548479508400  8.3635702636840197 13.1313664677287392
  5.5357298425721604  8.3635732475479792 13.1313598369199394
  0.1018614901642800  2.8626973673251799 13.1565712771123398
  5.4238123993222400  2.8627023404317797 13.1565785710020187
 -0.2943651420032400 13.5736308053946590  7.8496164946229792
  5.8200369317336405 13.5736246718965194  7.8496152237179606
  2.7628356738382402  7.9199626899254394 10.4242083139655985
  8.2885144259178798  8.3487830627493604 10.3273450169612797
  2.7628377735943603 13.9441716735136190 10.5724057302540579
  8.2885086792169211 13.7131232958904796 10.6335712392324808
  2.7628362264056405 11.0356691763086996 13.1492285404741782
  8.2885123261617615 11.0671239097834793 13.3739901377605577
  2.7628416415661601  5.4522127059800400 18.6896855418965977
  8.2885070215147199  5.6464584370609803 18.8223878631542618
  2.7628367789730404 -0.0936999591528000 18.7281364969929989
  8.2885125471887218  0.0851770490617200 18.8255628601779179
  0.2944158676905600  8.5291362547729808 18.6735899718722216
  5.2312637684969205  8.5291397359475987 18.6735924584255208
 -0.1018932075330400  2.6628544047659397 18.8924074358665806
  5.6275662129117201  2.6628464477953799 18.8924008050577825
  0.0100581633552400 13.7392208331655201 13.3918674613662390
  5.5156150630503999 13.7392208331655201 13.3918691190684385
  2.7628419731066001  8.3895441363749406 15.8896084277438163
  8.2885097843517208  8.1583943073771596 15.9507915083655600
  2.7628341266495200  2.6458533425431798 16.0765930363915786
  8.2885143154044005  2.8796437253753400 15.9723127376905367
  2.7628363369191202 13.7539813450947612 16.1958457566197573
  8.2885107789730412 14.1827954186503185 16.0990465574338373
  2.7628362264056405 11.2130176173245992  8.0783362427090406
  8.2885104474325999 10.8895990892534993 18.4447893831755394
  2.7628377735943603  2.0973548278498200 21.6997193702442992
  8.2885076845956007  3.4284447707201999 10.3493053715990388
  0.1155684770886800 11.1413529962057396 10.5282517270222584
  5.4101069595865603 11.1413533277461791 10.5282509534279001
 -0.1069652236976400  5.6617058161263598 10.9479115822322388
  5.6326374554819596  5.6617073080583404 10.9479100903002617
 -0.0122269904002400 -0.0059130237474000 15.8672098319011212
  5.5379011009137207 -0.0059165049220200 15.8672139761566182
 -0.1155262609393200 10.9618069393832993 15.9951334397700968
  5.6412008135067211 10.9618067736130804 15.9951311742437614
  0.0121979253550000  5.5312342094625002 16.1815304482446969
  5.5134779533741609  5.5312365302455797 16.1815273538672599
  0.1068444324640000 -0.1359910919089800 21.1012637894843422
  5.4188293465090407 -0.1359925838409600 21.1012676021993961
  2.7628371105134804  8.2347929944387808 13.0600307899830970
  8.2885115525674014  8.3920237273257001 13.0609358953842989
  2.7628368894865201  2.6023389913336201 13.5339025354964182
  8.2885096738382398  2.8327178230381795 12.9253604999303384
  2.7628405364313604 13.6786928211964796  7.9808481024887978
  8.2885104474325999 14.0972241680054395  8.0459027465986388
  2.7628383261617602  8.0055238285869006 18.4771622073854189
  8.2885011643002802  8.4237539709061195 18.5422300578561199
  2.7628381051348003  2.6930678508333599 19.1236032384720360
  8.2885114420539203  2.9231040354931799 18.5151240298193400
  2.7628370000000002 13.7108844032991595 13.4621794527466392
  8.2885111105134808 13.8679619645028005 13.4630971566845599
