 K Bi  O 
 1.0000000000000000
     9.3325549999999993    0.0000000000000000    3.0217470000000000
     1.8176030000000001   17.6977839999999986   -8.0062139999999999
     0.0000000000000000    0.0000000000000000   34.9464060000000032
 K   Bi  O  
  32  16  32
Cartesian
  6.9202700089186591  6.1231124031760800 15.0179052998091915
  3.5958762869970800 15.5254564065598384  6.5882705479056609
  7.9464006189837200  2.7357445110829599 14.9463088715921124
  4.2534336964896200 11.5812482703361592 12.2272260787417206
  2.2258690265570000  3.3317564993855995 11.9587553674135805
  7.6711578175655504 12.0664482387903984 12.3320572789449923
  3.4123225645861002  5.6373344250963990 14.8418426599639517
  8.9288530884251589 14.6275842891952781  9.2710129645644930
  8.3036722251499189  8.5133197161521590 12.1171427002665020
  4.8280398048053002 17.5192018558804001  9.5678076505263920
  6.4148350037552202  0.4180692651189599 17.5796647748454902
  2.6575403362278598  9.4491401298808793  9.1285744671166498
  9.2850817204493783  4.9363890898566396 17.8142718327927625
  5.3163080637975195 13.9252224233241595  9.4432145556035412
  5.6582588252260297  4.4339003331906390 12.1223834002720210
  1.8616333836864600 12.8724614241256781  9.4959085886468095
  6.9612990399737997  6.1131897866207989 20.5296033087608443
  3.1391404054890000 14.9653921571179982 12.2206941424548923
  7.9874768629855595  2.7258254340844799 20.4580864971782397
  3.7967143660086693 11.0213479023741581 17.8595789397375029
  2.1628861862149700  3.2115405850309600 17.6123049676438193
  7.7963816164328499 11.9190239282919990 18.1987005970884930
  3.3492265554596301  5.5172206269554387 20.4953423704539013
  9.0540854334587806 14.4802013915114394 15.1376333467458934
  8.4927619573130197  8.4309064453993603 17.8961430199933211
  4.7352191276683895 17.0974332229719188 15.3195400396606836
  6.6039570576195299  0.3356244923106400 23.3586520679786460
  2.5646075224362397  9.0274445888203196 14.8800998091993648
  9.2492586063426305  4.4150406896710397 23.3536258670897716
  5.5309883173545300 13.6741036107686398 14.9520804322560288
  5.6225888237108794  3.9125306956642398 17.6615694733287931
  2.0764737598336200 12.6213850862517578 15.0046575105816906
  4.3054539178944795  1.9716855155202400 14.3796364073389515
  9.7059692344774291 10.8846797740574388 15.0974935795692318
  1.4018096507187199  6.5998361949613598 11.7726010818108922
  7.0243690790588396 16.6659408966003184  6.6462453221275819
  0.6630383276206600  1.2944242397184800 14.6353853671799712
  5.9905106701053104 10.3044943830524804  9.2945893887990323
  4.8864045091334800  7.8297555515566399 11.5362509482385409
 10.6779273743641898 16.5799217023575203 12.0910231450909205
  4.1732712202827296  2.2490204094706399 20.6815483261528250
  9.7009013205768184  9.8806850186709596 20.8235456380977908
  1.2696478647084901  6.8771956888315202 18.0745895994189318
  7.0192160859057600 15.6620082604356785 12.3722983756864835
  0.6887195407942400  1.0190716745539199 20.9179794767611220
  6.0472894463666398  9.9667686328475202 15.3786639669258633
  4.9120325104264593  7.5544764321956794 17.8187603592291630
 10.7346877532651703 16.2422003765985572 18.1750536229371278
  9.8032217879208279 10.5585043056022396 13.0147656196121098
  1.1901308490303999  7.0894942352051995 13.7646296355107118
  6.8331656985610891 15.9600497386439173  8.6922964919139609
  5.5771843174030202  3.7088607038797594 14.7699725266149322
  9.5096263502424687  4.8900771747297593 14.8206555259571111
  5.7318666897399702 14.0068738044757595 12.2200609932130817
  8.2315730283581896  2.4104758770799197 17.6109650363335213
  4.2230741044415199 11.4706990625801595  9.4527018811122598
  6.4337869689432194  6.8332212970153590 12.5041064120968208
  3.0086143832017300 15.3216027117774392  9.2660639121725712
  0.6696871177772999  0.8723795213796000 16.7206932629075737
  6.1571284202388696  9.8380315894525587 11.4134531193789623
 10.5329183710079501 16.4913030576007991 10.0076842700879709
  3.3462333972918801  5.7095521794646391 11.8809977215875016
  8.8952286293360796 14.6295060915598398 12.2368863395965821
  2.0532974826587798  2.9731199324954396 14.7566943864515103
  4.3849750685122801  1.7593563519802398 18.6895004009967920
  9.8920520890029593 10.5866554626996798 18.7775294400912607
  6.9219174132521495 15.9882099216111992 14.4550346775082517
  5.3979744464831594  3.9588141173588798 20.6553052877704815
  1.6607555724553700 12.5397921077873580 12.2278177137610520
  9.3304718423241297  5.1400162530038402 20.7061043847048936
  8.4739046804769185  2.0157340610513601 22.9719334317093669
  4.3840604947116706 11.2250839068929587 15.1817431457689480
  6.6760786189655397  6.4384534652443195 17.8649609137997416
  3.1694991445794498 15.0758785377407989 14.9952408869829341
  6.1922385427852698 10.0554046214325599 17.4619757210195417
  4.9054316490175403  7.9764953117699191 15.7334277613696845
 10.5681590248664801 16.7086603385530381 16.0561910859532517
  3.5217996626825498  5.8757642804795989 17.6974912650696581
  2.2288411436317399  3.1392918595407200 20.5732605782627722
  7.8299993468438993 11.9172337974403995 15.2328736260605719
