Sr Sn  O 
 1.0000000000000000
     7.3292539999999997    0.0000000000000000  -10.3651300000000006
     7.3292539999999997    7.3292539999999997  -10.3651300000000006
     0.0000000000000000    0.0000000000000000   57.0082149999999999
 Sr  Sn  O  
  18   6   6
Cartesian
  1.6486146168873399  1.8776735933731399 18.5118704628179493
  5.5985040981616594  5.4490880205116197 13.5546258719482484
  3.7119534589288001  0.0000043975524000 16.1461153635943511
  7.1549723287668598  3.6645561994063596 10.7128467357814010
  8.9775247282896586  5.4520798219944195  8.1467627478474487
  5.5985471941751799  1.8802644113695999 13.5546356151704508
  1.8321773957532199  1.8323339486186598 23.8398658550885010
  5.4969562578960991  5.4970659768284795 18.6572006761070490
  3.5165904345378403 -0.0000866317822800 21.1289718279144978
  7.4770999315656201  3.6646829955005598 16.1854626408899485
  9.1614566816795211  5.4968987232522002 13.4746721613646478
  5.4969177060200600  1.8322260619997799 18.6573737737780476
  2.0162735977252200  1.7869089913476199 29.1677670283273507
  5.3953494171358392  5.5448481687709990 23.7598976851485517
  3.8386398341964196  0.0000375990730200 26.6016544326346001
  7.2821562870885401  3.6646855607394597 21.1683377106184523
  9.3459497627556196  5.5418708059185802 18.8024447551658511
  5.3953262566931999  1.7843933714972000 23.7597651151358491
  0.0126431097350800  0.0000221343470800 21.4158012506190509
  3.7939384208802598  3.6645545869704796 16.0536442555918981
 -0.1091742222227200  0.0000298300637800 26.3827431979884999
  3.7738819173092599  3.6646000283452800 21.2969124321342989
 -0.1291494443668600 -0.0000596601275600 31.6259961896154493
  3.6518231597247000  3.6646273664627000 26.2636080521892978
  7.7269279616963003  3.6647600259601001  8.5664246801692467
  3.6298905870073201  0.0000604663455000 18.5490252559903013
  7.2460444662902201  3.6646573431115601 13.5125165466358990
  3.7477562783784801 -0.0000104075406800 23.8018125606220998
  7.3638808406453791  3.6645970233511398 18.7653960490990492
  3.2669796434957195 -0.0002038998462800 28.7478086014619016
