Sr  O 
 1.0000000000000000
     9.8939339999999998    0.0000000000000000   -4.7242189999999997
     0.0000000000000000    8.5111609999999995   -4.7242189999999997
     0.0000000000000000    0.0000000000000000   42.5179710000000028
 Sr  O  
  20  42
Cartesian
  3.6777889767743996  7.4679673165654696 12.3100833935598395
  8.5321854610295400  7.6820638692882701  7.6126080083500813
  3.6713095383371401  3.3768073823305000 12.4101439582143005
  8.5650852650630398  3.1254727128888899 12.2537163745613427
  1.0863638471340000  1.3077883161560899 14.7863078680127291
  6.1817435178895801  0.9927013910252499 14.6016450446624706
  1.2211435672916400  5.2287493723115199 14.5723052353207798
  6.1278446304558001  5.5842401404951190  9.9617051667786711
  3.7121154860907000  7.5190953927014501 16.8934543865672708
  8.6546714734954797  7.4964028501316395 12.3143499774653122
  3.7021137082100997  3.1991569827954600 16.9021456739881408
  8.6731086216258007  3.2811536780926795 16.9225963456172401
  1.2383277476201999  1.0156506302108199 19.1810289858026621
  6.2168217683111999  1.0437092044562999 19.1844882951654121
  1.3286641141285200  5.3857352687198299 19.2417766785954818
  6.1920274707678606  5.3123374844925202 14.5924791622008598
  8.8076647388750402  7.2024267534103696 16.7090175226117807
  3.7657286367105596  2.9271020621225698 21.5333586910820038
  1.3611348182444400  0.8272802531730600 23.8826180791910510
  6.2242359856327791  5.1354026182627495 19.0838702254267645
  3.6320385355043401  5.4215386590288697 10.7950286278849603
  8.6221530806176805  5.3836730144095304 10.6648468680662134
  3.7222911993310204  1.9843345462333899 14.5020746649714489
  8.6517464308477194  1.1442700185686701 13.9187107177255331
  1.1861515919745000  3.3124987520466997 16.2995271328795397
  6.1430773312421998  3.9680473521557293 11.9641443788703494
  1.1225690166382201  7.3199048617960001 13.1709296821382331
  6.4006096064477394  7.4726036012970001  8.6084775308628032
  3.9042826948105200  4.2957427963035801 10.0431291126578426
  8.5626626363838003  5.4566830301416793  9.2456294514707427
  3.5780190410150996  0.9453845276734599 15.4703659921653909
  8.7811192150136996  1.0639917266773500 10.9327662090879318
  1.4756319737020800  3.1150199858415699 13.3202953142612319
  6.1233506077543192  3.1306840116575803 13.1657982354604322
  1.2254518808519399  8.2691578823671783 12.0754927561924639
  3.7105722302653801  5.3708284808979903 15.3240304741089908
  8.7079098418954199  5.1983189077185603 15.1961777070150532
  3.7336633860099600  1.0428199583550199 18.4394185833465940
  8.7712337897969395  1.1915761578576001 18.3248276438294511
  1.2723370574124599  3.1273914690247295 20.8276964772313917
  6.1835336273681998  3.1409210658851596 16.1709530720286807
  1.2420145242466198  7.3667010974294200 17.5755821475943428
  6.1600669968283199  7.4685026685923699 13.0555262714374702
  3.6984944082135600  5.4461780445658192 13.8309913720913435
  8.6845244405536803  5.3008401826556701 13.7114388215694518
  3.7550498169263400  0.9682040567653900 19.9373091748241009
  8.6680736975525399  1.0842371402364401 15.4052174531631216
  1.2096870842950200  3.2106392198773399 17.7824009911483216
  6.1956303468339602  3.0652970172750797 17.6630878640453517
  1.2259486552780801  7.4258696673621003 16.0898499951039931
  6.1387196469512402  7.5428270629177492 11.5581070625317786
  3.7515844665428397  4.5443158493355202 19.5314116953679360
  3.4918370384540403  1.0394511557196100 22.8866518046732104
  6.2619000157052991  3.0907549211654000 20.6999403204160011
  6.1710113698011000  6.5277508509628195 16.9933764371206522
  3.7703162560276797  5.3804670302840503 18.3289316201169399
  8.4191917877825393  5.3946810096004896 18.1749319070924642
  8.6677779678652787  0.2395977784226100 19.4180388957199384
  1.3314297654995400  3.0521723814550294 22.2455573815832004
  5.9895124932954600  4.2179117185345900 21.4522128599753614
  1.1134871767409400  7.4466248143534797 20.5638160127593395
  6.3152118960348593  7.5663325064746694 16.0241583598854831
