Sr Si  O 
 1.0000000000000000
    10.1533230000000003    0.0000000000000000    0.0413680000000000
     0.0584970000000000   14.3583949999999998    0.0011450000000000
     0.0000000000000000    0.0000000000000000   43.0755430000000032
 Sr  Si  O  
  48  16  16
Cartesian
  7.7467886361757508  0.6952848889541000 28.2467487606139898
  2.7843042464722805  3.7109918005274998 17.6163155866850509
  2.8849371118860900 10.9440470658366991 24.8118632702656825
  7.9616701865110802  7.5045542795975502 21.2602194657175296
  5.0846647945525492  1.8025830609294999 23.6925583022000801
  0.0158796300157200  5.3545956967540498 27.2355597185635041
  0.0478726462108500 12.5593560217083500 20.1029324447283813
  5.1187829903633109  8.9910414385366000 16.3478320993959798
  5.1209689693198506  8.5571939185745993 23.3207183934269935
  0.0506146384015800 12.3258346750270995 26.9202099012736547
 10.1592586450446607  4.9837276868608003 19.7529340713282444
  5.0907416304352200  1.5065788610625501 16.1128608740639514
  2.3110312854165604  3.7681937796161495 24.8231571389404024
  7.5446008157957101  7.8558025478109492 28.2283220190176891
  7.3537545132161997  0.3311254083727500 21.2628808537805298
  2.4177586411483500 10.8899377414471008 17.6389558235636308
  7.7941041286586703  3.4684383054715000 25.4792541291864403
  2.6671986151583100  6.5025529666028001 14.8897326024175918
  2.8580260396585500 14.0271820054177496 21.8552003945385387
  7.9007258035950612 10.5903106313537485 18.2948654434800737
  5.1210923746339798 12.8518643831446493 27.0052757373091445
  0.0078959108122500  2.0325963645443497 16.1563347146478726
  0.0525341495659800  9.3746935890020495 23.3650520371075316
  5.0908215731681699  5.8010234680792498 19.7973348908053417
  5.0929709212847101  5.3674556496518502 26.7701529938940546
  0.0427130268228600  9.0038273021161999 15.8412174085607109
  0.0106193405500200  1.7989050144663001 22.9738024787287252
  5.1271076023264497 12.5558906230751006 19.4255005241055727
  2.2501634790239704  6.8537807023113499 21.8578090178230120
  7.4274906636236100 10.6474502950081007 25.5018070811558815
  7.3269561441317110  3.4143852659902998 18.3061934613163508
  2.4651099161947800 13.6630019923315498 14.8713769042314308
  2.6364424803200102  2.8994014711462497 28.2170906159236203
  7.7901581265952196  7.0618683060093499 17.6457557556394597
  7.8836583209673599 14.1773765604757500 24.8415684846268547
  2.7863319405510301 10.4067672680687497 21.2130190658233104
  7.5663040044280807  4.3025065586412996 14.9328986174112313
  2.2989425335962301  7.3328171066013006 18.2450415176272429
  2.3432357209449299  0.1123617636564500 25.4225682639877206
  7.3452971643388505 11.0584332196042006 21.8573076421808956
  2.8664053803452698  3.2998417442135999 21.2606871351719207
  7.9129871076679201  7.0255743037999494 24.8730144981054835
  7.8685897088687700 14.2460451538113997 17.6954946509745525
  2.6455037276001900 10.0558927488772003 28.1851745630941970
  7.4254936538029801  3.9515803492277497 21.9050330771790840
  2.4216377877185402  7.2965710614312007 25.4723311634200300
  2.3280739484722202  0.1810170036847500 18.2765293718712698
  7.5755091701743797 11.4590340195276497 14.9009706613306108
  5.2254058254215110 12.6956136006596001 23.5349410299178707
  0.0613917329742900  1.8742413592720502 26.7252598227041318
  0.1461799792987500  9.0690781666899998 19.7816721162801414
  5.1552115985712001  5.5086617058559000 16.4664178090269324
  5.1615176161311904  1.8022054351410002 26.8383461950518942
  0.0876836057306100  5.3775936816094996 16.3260097208137225
  0.1894552784680800 12.6082839756782494 23.4201228679697486
  5.2656013171445704  9.0393791188880499 19.7264484346195310
  4.9461512109734702  5.3190026713885494 23.3915771367634520
 10.1240825836639505  8.9808267327496498 26.7920688915866414
 10.0223523628079700  1.7501428999586499 19.6980519721881926
  5.0504184700274104 12.5561729091208001 16.2797455988150901
  5.0565601103012092  8.8496929470541499 26.6516440222473214
 10.1505055197744607 12.4841501947131484 16.3927917535218235
 10.0656045818426101  5.2892909881989993 23.3363238626934510
  4.9864557842322004  1.6627518210466998 19.5830371710130819
  2.5617144755894401  1.7224280387617499 23.3056428955429702
  7.6785014767959003  5.7400255601044501 26.9576203596152126
  7.6500649970272798 12.6360378917095488 19.8123957135967714
  2.5333110135064500  8.6183952850065513 16.1603809054801850
  7.6287664443433796  5.4676058855287000 19.8063387378011093
  2.5830397101204903  8.8908797159437505 23.3116435523301107
  2.5132162957247099  1.4235102333814000 16.1503844596726722
  7.6985932168525508 12.9348526038138001 26.9677231862187696
  7.6081306562828397  1.8771948811235502 23.3332205374613046
  2.5116450879183301  5.0251976032997998 26.9381649159990779
  2.6036141042535901 12.4812740646106999 19.7848398989672596
  7.7001915526685094  9.3332196522124491 16.1798136172281097
  2.5480803484521299  5.3082750837321999 19.7760224331990102
  7.6637120084372103  9.0501384385973509 23.3419860722461010
  7.5928840310522405  2.1871008790294999 16.1790561173399823
  2.6189662264352700 12.1712942645544508 26.9389806219537640
