Rb Lu  O 
 1.0000000000000000
    14.5130859999999995    0.0000000000000000    1.3432150000000000
     6.4767510000000001   12.9877389999999995   -8.5630839999999999
     0.0000000000000000    0.0000000000000000   43.3192110000000028
 Rb  Lu  O  
  36  12  40
Cartesian
  8.7996384092107718  1.4177323679453100 18.8709945680129891
  1.5443928554781801  1.4180844655495999 18.1990915411707910
  5.9240976245096100  8.0060739021669711 13.8487921496754218
 13.1803703056731294  8.0036919508343694 14.5247581560997201
 12.0706933470664399  4.2023343904867394 17.1415138577498709
  4.8146698506389995  4.2016779901576795 16.4713085887807509
 12.3124475641695188  1.2014513168226200 19.6560573704372707
  5.0554910284340799  1.1997626509978399 18.9848751450130990
 11.2138943264843594 11.1930602361229408 13.0274527304195118
 18.4709365506200776 11.1980836338133596 13.7092709193657889
 15.5823436344087991  5.3300914579398997 18.2278099412020538
  8.3261592149880901  5.3312825634835903 17.5563869105609029
  5.3656270346672095  7.8591667290353895 17.3743775403004612
 12.6229763379514104  7.8580700443542302 18.0518566441875805
 10.2146745141402100  1.9766727035493101 22.6040749279767645
  2.9592037993988702  1.9759344804645500 21.9313910874573104
  8.0454859977578099 10.7045829303025890 15.7326500403436427
 15.3030254972137385 10.7042186242236390 16.4087489599993575
  8.9250766747590795  8.7763243616687987 18.5034794608156972
 16.1840078934013505  8.7770564805162294 19.1797528531774510
 14.7919402188854505  4.5168993772275901 21.5467405881931633
  7.5373676536511187  4.5174494079742393 20.8720289347148018
 11.6044225829638989 11.6232105152360194 16.8593297653361844
 18.8628761560703992 11.6238063927013400 17.5356074143575391
  9.4269560984015399  1.1635034812576399 25.9177247150233612
  2.1684861032233700  1.1640114317299299 25.2462229455178004
  5.7570886748282000  8.2832840735055804 21.2034667018615224
 13.0140728575861910  8.2889611440998703 21.8850995110005719
 12.6971582029509413  5.2940419103071603 24.4907530060094132
  5.4407101504248603  5.2924605232065201 23.8177296835134129
 12.9373589418876787  2.2927647886417799 27.0023143480235319
  5.6809459768379194  2.2908503959131798 26.3329358227142336
 11.0467435577437101 11.4754992711829509 20.3893365692042892
 18.3033762964369195 11.4761789195648198 21.0628454932034934
 16.2068753186206180  5.0762299943885401 25.2756808564141835
  8.9508390748440689  5.0760360874452699 24.6020295803083826
 16.9741070075305593  7.6403418993521601 15.7002945126872895
  9.7174812441665992  7.6398010899001996 15.0259081079376742
  7.4840634189710800 12.0862345800415589 12.3080449993969214
 14.7411628184758694 12.0841236828218896 12.9810034415423132
 13.8914334548698086  1.3163326737410499 23.6885531449601494
  6.6348197234350090  1.3153739188480700 23.0157297906112497
 11.1167483529038904  5.1788839145480301 20.4589656259463695
  3.8600369494707403  5.1775540999518199 19.7882178774605322
  9.4874398126512993  7.3975654710373000 21.9314304565299878
 16.7430887937395205  7.3959147294104000 22.6035852105534545
  7.2537677189840810 11.8406946206222798 19.2116929066948821
 14.5098361744955415 11.8414699886405810 19.8862820195331551
 14.2049813397942692  2.7609342060069499 18.0189522895351999
  6.9487737275457393  2.7620837507858398 17.3494529474738819
  6.6876761734406296 10.2020865291282501 12.5047313495168417
 13.9461271397435791 10.1991906529634200 13.1763235646293815
 10.9370282540144288  6.3841738875094896 16.0072286587062429
  3.6793376327136200  6.3813795754636393 15.3352102689450032
 16.5547067697707391 12.5961812678158598 12.1546456650051784
  9.2979034700321392 12.5954936969131985 11.4813184484837532
  7.8923248032386102  7.7462157397645299 15.8979527425609390
 15.1489505453087787  7.7461610613833392 16.5732916399940535
 14.0938809373179783  0.5835814532991400 21.6786389935425099
  6.8357407654280093  0.5799255346480300 21.0061783673372027
 10.5916980023764200  9.4466956015711006 15.1592662977053614
 17.8502041436980683  9.4464606533725881 15.8365226453752008
 10.4284551961471283  3.2999357646981502 19.9874410740948214
  3.1741332942173401  3.2981407292909597 19.3154354027203929
  7.3951316941948404 12.9361192313444988 14.2387604694447241
 14.6508128939975197 12.9338279344301199 14.9116573072394409
 12.9495767998250795  5.5776985458984196 19.5675717925679287
  5.6922866245051100  5.5821529507432492 18.8968090813703924
 12.0589262592496507  0.9112308078181499 24.5787438764293498
  4.8032050185983302  0.9146917805068699 23.9086461401265886
 16.8318472385393285  6.5445784385194292 20.6741745345767818
  9.5782997161307097  6.5492948060598906 20.0003084363910908
 14.5782239258294304  3.1956361681299699 24.1628996200007506
  7.3233966118481595  3.1948284606415598 23.4850134117169027
  6.3771902102293900 10.0350712189673104 19.0753000146735978
 13.6361507858493702 10.0343922199723909 19.7518326061619405
 10.9162127281056094  5.9142364492342496 22.4687914506315423
  3.6591882601138099  5.9127558469882500 21.7976168686410574
  9.0792704929907107 11.7340519060611097 18.3392109252221047
 16.3350869121497873 11.7352421024630686 19.0135221816047881
  7.6737437569105298  6.8862790979851498 22.7559266099895083
 14.9302392322813304  6.8865388527651499 23.4304806060023623
 14.0713049032412698  0.1118383296707300 28.1400321962382733
  6.8127225842362993  0.1091796096200400 27.4686495893432614
 10.2832073457344606  9.2817196261879396 21.7377771688387824
 17.5374660267169986  9.2799132914478193 22.4028931366692596
 10.8031661857908894  3.7323853931237898 26.1277373584051027
  3.5480451667911197  3.7333681753339194 25.4561494814855962
