Li Sb  O 
 1.0000000000000000
     9.8954620000000002    0.0000000000000000   -0.0264290000000000
     0.0000000000000000   18.2134210000000003    5.6852900000000002
     0.0000000000000000    0.0000000000000000   34.1117399999999975
 Li  Sb  O  
  32  32  64
Cartesian
  3.3548745125084398  5.6007697507206400 14.8561919345598188
  8.3021453735254411  5.6094178472798601 14.8370686908475200
  1.3844982333472799 13.7380558008562090 16.8764029289853390
  6.3285568294898402 13.7387639386646914 16.8663320828696186
  1.2919577528610602 12.6608581677137391 19.5391352407785277
  6.2441160815144796 12.6622396556965899 19.5290991029573391
  3.6285550862256000  4.1439800179540303 17.4669655717972958
  8.5787597538163602  4.1537150914785297 17.4590322395990789
  1.1499722215809600  5.6080551191206398 16.6848084569888790
  6.1038448400712610  5.6055256392121597 16.6770474850448309
  3.7837109826546000 14.0959114574563209 20.4708174318530993
  8.7318376032253600 14.0951244555349096 20.4592995596685796
  3.7719942608735000 12.3652514307363806 17.6395744188163484
  8.7176801657419603 12.3631954997738998 17.6262318902885795
  0.9981825634151201  4.7837909060893704 13.8901103350622606
  5.9440202646706597  4.7834967593402204 13.8845231031729295
  3.6511032817572797  5.5501298835090802 20.2437992316830382
  8.6040524557337399  5.5543036710654405 20.2306053614416683
  1.3180625753447801 14.0634573268448406 22.3149479316091863
  6.2659156853458606 14.0660665815373012 22.3022201074167299
  1.5933348341246401 12.6090788688844206 24.9328928928097184
  6.5412747273274610 12.6112225885361209 24.9204752536689291
  3.5646028923212398  4.4760971965337797 22.9064588428434170
  8.5125621806295815  4.4759259903763802 22.8927751515245888
  1.1757809718416401  5.8493614555338596 22.1438700547264204
  6.1240916480055994  5.8500397233318999 22.1334445742591974
  3.9514693436683204 13.4285420241400892 25.8884612672168579
  8.8974396441146606 13.4307738967494288 25.8770857716944320
  3.7943047674079398 12.6068925298275811 23.0944896401555653
  8.7432957565844003 12.6061823885427895 23.0835880189499001
  1.1649821531156599  4.1197191947793996 19.3100376694798257
  6.1110753552000396  4.1179424755608505 19.3015708380435171
  3.6509259550782400 15.7917219244348619 17.1773082369439187
  8.5999105122043993 15.7902852497863808 17.1625715068418003
  0.5429012627109200  8.0465761103213804 14.5035630799984592
  5.4848464850341401  8.0495348805628311 14.4883874279961695
  1.2917601404849202  2.2476048159971698 16.3421932176115590
  6.2433115804538808  2.2469673462621702 16.3323229487090380
  3.5863546021165398 10.6346294700663293 20.1377932897555709
  8.5312359069697798 10.6311414178106212 20.1276640188146878
  3.7366483632918399  2.6336910930130699 13.9319926777764209
  8.6818949096475002  2.6399787302106899 13.9140175839346494
  1.2170713703105600 10.2089231740807111 17.3080739983639802
  6.1580056722358600 10.2074710180243802 17.3057296758217269
  1.1828827470098000 16.0466187513298593 19.5900015358800985
  6.1317396526761607 16.0485816117110289 19.5762703628369792
  3.8094537301837401  7.5543026747281203 17.2013137329460690
  8.7521770326840205  7.5645060153065300 17.1854791244249085
  3.6539902827957804 15.9650011334130806 23.4392251391574895
  8.6028326421330004 15.9651417410231993 23.4263220674534978
  1.3638137491286801  7.5816872817384597 19.6431383183955397
  6.3098441150293603  7.5792951310243204 19.6328609467712774
  1.2963077979562601  2.4214874356131197 22.6080672702197312
  6.2440659115221404  2.4225259648785404 22.5938048988572682
  4.4073609964686797 10.1632570278758312 25.2808739408612375
  9.3561101405538611 10.1675482919976403 25.2712117902713267
  3.7635147405310803  2.1657130860943403 20.1947584411869379
  8.7119833482685607  2.1679648113325700 20.1805320931065815
  1.1423288677775401 10.6498580756328494 22.5829088716320676
  6.0878235923201602 10.6548638522604904 22.5698574857373799
  1.2123694425866400 15.5748798551088399 25.8540816191403167
  6.1589180338322604 15.5776887288954597 25.8400005414773304
  3.7346064347081400  8.0064646932530792 22.4668638978808701
  8.6799555970047404  8.0055294340847301 22.4613149251762643
  3.2487935765945202 13.9971901622810702 16.6964143588621567
  8.1945191622655997 13.9962314077996304 16.6838153602861006
  1.6486531384793801  6.4577969939835498 14.6616394578137896
  6.5918965464623804  6.4618283525876903 14.6469493303838885
  1.6467333198967600  3.8484690835711302 17.3400552019000784
  6.6005956471065801  3.8456168618425304 17.3325912569917904
  3.2725038951834802 12.4577226083612693 19.6132677517774390
  8.2246810252147000 12.4552403012131787 19.5996864443087482
  4.1319510918124003  4.4703472195240801 13.5678897966975995
  9.0800772176100590  4.4773943563773999 13.5550258197212283
  0.7986457178253600 12.0998756942032397 17.5084022235116805
  5.7507186486417208 12.1008089498952796 17.5003631581794608
  0.8242545797536400 14.3660561961441005 20.4529518938724202
  5.7733253263538202 14.3671619329330102 20.4387438361024110
  4.1647988800121603  5.7474979809676903 16.5476352174179766
  9.1063957820729797  5.7561927038846701 16.5345037320895898
  3.1423944026226804 15.7176588692804611 19.1719452535205406
  8.0908326312918213 15.7191576516945499 19.1577708364220101
  1.8940645542641801  7.1904209256559506 17.6020578652831894
  6.8413220564074804  7.1949178193008505 17.5932887073980382
  1.8149078840421999  3.0205122815663201 14.5111501003910988
  6.7615050620062398  3.0222869973085600 14.4996353465735197
  3.1370636182886602 10.3099435493887910 17.6507637859216295
  8.0797724734144207 10.3000908171646302 17.6436775696801114
  4.2835296797737801  2.5952285369479000 15.9034854528956888
  9.2283160871464407  2.5926750153236999 15.8850304987626192
  1.5274669777317000  9.5107623133560892 15.3014424967579501
  6.4656792359700406  9.5087214995330402 15.3003083379632194
  0.6663426982030199 15.4745982161565205 17.7045231980691113
  5.6140555895075597 15.4794894303660691 17.6907816631982797
  4.3076164217372197  7.2082921164753602 19.1198509704666115
  9.2553568224261209  7.2168487816611604 19.1040384952406583
  3.2977077358521001 14.3661658409385193 22.4399461253948473
  8.2458477152965592 14.3657540354897115 22.4284651719161801
  1.6702155480866199  5.7569478323193293 20.1707283944214062
  6.6231907471281399  5.7561205787375105 20.1577581139803677
  1.6986609441972000  4.2162122600295104 23.0873363850232955
  6.6467364052294204  4.2169564604115699 23.0743154019478069
  3.3021158673092401 11.7518749554378097 25.1215666519485197
  8.2487895371945399 11.7551750451887997 25.1100502725122681
  4.1209686133117005  3.8450212829758303 19.3296949840273484
  9.0721063240144399  3.8483598030451303 19.3193838456767182
  0.7863219094505600 12.4581058187391100 23.2325351449913811
  5.7320415578444397 12.4622448186613610 23.2215352637910186
  0.8171771474220000 13.7368402371386704 26.2133908235667015
  5.7654878235859606 13.7396416434226811 26.2015711394327795
  4.1452561341991201  6.1124761779840604 22.2713821719105596
  9.0954653537023997  6.1128295183514600 22.2629173666457980
  3.1334273328675200 15.1907276612689301 25.2715173471256591
  8.0808998634000790 15.1937632921470005 25.2593977852174376
  1.8136663004250602  7.9114219627172000 22.1256154751503260
  6.7592734374160006  7.9076140827887302 22.1223940534024983
  1.8042898554069602  2.4939573628326501 20.6122249047371788
  6.7522995116168802  2.4965766349066603 20.5989263709980364
  3.0544657022015600 11.0194189515070313 22.1778145707242800
  8.0018097896373597 11.0214635901484908 22.1676991323249766
  4.2810696679205797  2.7372766465347902 22.0796039677489908
  9.2288848783021997  2.7360714644672202 22.0666117082358966
  0.6413896085414801 10.9978562645193403 20.6644550621519372
  5.5865391793695398 11.0030150338833792 20.6513994813397694
  0.6666431244293400 15.6178154452373992 23.8828549577096680
  5.6138969652517003 15.6188355789476088 23.8686076347179466
  3.4248949995296800  8.7039496539243899 24.4710909117789370
  8.3742973430614800  8.7060904594287312 24.4661201666528392
