 K Mg  O 
 1.0000000000000000
     7.4598129999999996    0.0000000000000000   -4.3069249999999997
     7.4598129999999996    6.6783349999999997   -4.3069249999999997
     0.0000000000000000    0.0000000000000000   43.0692480000000018
 K   Mg  O  
  24   4  16
Cartesian
  3.6626305494501499  1.5419870140065499 11.0436078034571299
  6.9401961447747595  4.5371192182979998 17.2469004906284411
  3.4059663584189002  1.2109519655590499 14.5131749070663805
 11.5331755567629184  4.4500402078829495 11.3621981847426827
 11.4663001981711687  4.5370474261967502 14.6336911037890705
  7.7326820682130188  1.5419590317828999  8.6937340615977021
  2.1092363147970197  0.0952963009324500 17.1529850238981822
  8.4534347282357984  3.4092105453135000 11.0425776739482018
  8.5170629048267799  3.3649134163918997 14.7518526553397784
  6.3130738356588800 -0.4223718981251500 10.9345843484038401
  6.3405048362280896  0.0952572994560500 14.7100459545606324
  5.3365224721091105  3.4091284017930001 12.8422225381690502
  3.4534713427804600  1.1979657428015000 19.8215668780817822
  7.1868835073016797  4.8811475685381502 25.7616768591783227
  3.3864387313306699  1.1108845285358999 23.0932001167423699
 11.5136398730766487  4.5501488502330503 19.9422280458976715
 11.2569713553538584  4.8811425597869000 23.4118359791541408
  7.9796261229052696  1.1978799929800998 17.2084531049716141
  2.1233780314973800  0.0700548659664500 25.9201576147207007
  8.5791406338838385  3.4344615302985497 19.7453326212080036
  8.6065344099861782  2.9168056861606999 23.5208307931573408
  6.4026754399569992  0.0257475859756500 19.7034869427569213
  6.4662087277266194  0.0699671794279000 23.4127249707362601
  5.3506095829783096  3.4344385568261497 21.6093461161888101
 10.0557023007490791  5.0917883317230004  8.8054185029370018
  4.9830919739820203  1.8688308729747500 17.2446737768389404
  9.9366392839794102  5.2079786718865000 17.2105678387187524
  4.8619367780583698  1.7526534219977998 25.6511150178397926
  9.9799678174347903  3.1527821824017499  8.6719405742360109
 12.4331783476057094  6.5197728281120497 12.9209658540238124
  3.0358508695453597  2.5707001733854997 17.2462463734280789
  8.9173775816775702  5.9768133737093496 10.1342080712433109
  8.9481865347694409  5.8836536057100997 15.4988662681937619
  6.1811008665114109  2.1279552129426502 10.7060567255224317
  5.9580855793811294  2.5706790698468995 15.5589672012731910
 11.7782332485418593  5.9771916346037495  8.4826809419142997
  9.9463217482627595  3.1806148781310997 17.2274761791852384
 12.3994881909388504  6.4919538897528000 21.4765221752825113
  3.1420204947220900  2.6376586961125499 25.9725178627968702
  8.9616864837574095  5.9098748859872998 18.8962534395596293
  8.7384650819939402  5.4671323965283998 23.7494000640027032
  5.9713318947270988  2.5444790934583499 18.9566076198241014
  6.0027198785040294  2.6380387601574000 24.3207191818634136
 11.8840233184331474  5.9098552516823997 17.2091392656910926
