 K Ru  O 
 1.0000000000000000
     8.0471590000000006    0.0000000000000000    0.0000000000000000
     0.0000000000000000   10.6030320000000007    0.0000000000000000
     0.0000000000000000    0.0000000000000000   33.5932099999999991
 K   Ru  O  
  16   8  38
Cartesian
  4.8471882784854303  4.9871384338670399 10.9831552227648999
  7.2087807877723309  5.6796326326977598 14.5573017773259998
  0.5557869343405701  0.7165820608980000 11.9701919267812009
  3.2275375522145100 10.1957970027328795 15.6994245586961991
  6.5754522340236603  1.9096548371472002 15.4632081917355002
  5.7010022292205402  8.6477572995818406 12.3409813492734983
  2.3928044615990700  3.2442890117193603 15.3702658576284996
  1.6551571254550301  7.7095346532415201 12.0185325559711984
  4.8042213581924207  4.8968369696267997 17.8979892956031996
  7.4961469279236708  6.0023913654751206 21.6331057782496998
  0.8361679795367301  0.3828532191528000 19.0334203095414018
  3.1986453544272702 10.2796379335452013 22.6081053632588009
  6.3936888809577308  2.4035226495825599 21.5897490376952987
  5.6612493442321297  8.5435962941234411 18.2194044258338010
  2.3437843073630802  3.3384418152729602 21.2765219164700987
  1.4801520984036602  7.2215542803544803 18.1320916418586009
  0.6639400270562601  4.2386443215283203 11.5158531676300004
  3.6869207288089303  6.4855570075612805 14.6720729792910003
  4.3088556320158604  1.1714817161572799 12.1534576683435986
  7.7432619030013212  9.1823314242290408 15.5026654324730995
  0.2988336636127000  3.8867761307284803 18.0890382479905014
  3.7402037045819903  6.4685776302074398 21.4413352437115989
  4.3598855642121004  1.1851848626534400 18.9220420217863996
  7.3840257811050805  9.5279508241500004 22.0646387789960983
  4.4604484960874009  4.9396234906867207 15.2552064259216991
  7.4610306550078809  5.4724467366597604 11.6052507462178003
  0.4345914891472200  0.0104786584346400 14.6570467364579997
  3.5451680917057704 10.3586422913107210 11.4590759396806003
  7.1183765089470405  4.1473506255535204 16.7931744613947984
  4.8303471841302308  6.3065621349139205 13.2527356696797991
  3.3722553259943999  1.5725200894629601 13.5837581220382990
  7.8221947152573401  9.0542508268211996 10.9507535639236000
  4.4010792125478702  2.4355598168008803 10.9627490273503998
  7.4060708927139904  7.6011718782621598 16.3575323392011995
  0.3799371970089700  3.0080938563112802 10.3252920008286999
  3.4446717903069901  8.1692376940574398 14.0266214406534981
  7.8541084603059002  8.2663031505014413 13.9667180285815000
  0.6164931728763601  3.4183139251773604 13.0764794873160000
  3.8650529623192904  7.1682878284960800 16.3270827817929991
  5.9333350560447302  0.8464003892203200 12.7431985634491998
  6.1660663781825997  9.8969197970200806 15.8082588326578986
  2.1587750522429103  5.0804566727719207 11.1486128677742009
  2.0836998065967203  5.8643644878693602 14.3725219897889005
  4.5140082941300603  5.0536788214862405 22.1266330324584999
  7.6216925868008314  5.3280465885794399 18.9266782206985020
  0.5847564653258001  0.1603941856704000 21.9858173507126011
  3.5886027933514502 10.2408485434886405 18.3407199210389003
  0.2259529586974000  3.7413861896109601 22.6552302541788997
  4.6597004983932599  6.8900877015168005 20.0056874228490997
  3.2155781059234800  1.0047141539820001 20.3407827159879986
  0.9128264232445801  9.4543710835860004 16.8092306720464002
  4.6057836479057706  2.8660409014248001 19.5713000070489969
  7.6718704053305604  8.2978885225262413 23.2547484530549973
  0.6501969279728801  2.3101357030303200 17.2333392374507000
  3.6506902462580002  7.7319141547929604 22.6323146459774023
  4.1769828943749499  1.8690097044300000 17.2686856770805974
  7.4370285548017607  8.7141803116368006 20.5017412223819981
  0.1861048758180200  2.9761629314736000 19.6247350465354984
  5.9658562811262001  0.5651265492945600 19.2156362632912980
  5.8852086997588700 10.3599637471888801 22.4336988230375987
  1.8739394217107102  4.6049740937032801 17.7749672653300976
  2.1177536131097399  6.1221553687034396 20.8609426670847995
