Na  O 
 1.0000000000000000
    11.1901759999999992    0.0000000000000000    0.0000000000000000
    -2.7975439999999998    9.8908120000000004   -1.9781620000000000
     0.0000000000000000    0.0000000000000000   23.7379479999999994
 Na  O  
  36  16
Cartesian
 -1.3539075350930396  7.9701293615811606 10.0077386776541406
  4.1627790145525596  8.3336544854830006 10.1687392253633409
  4.6704775234760803  4.1422848247474802 14.0808204094074991
  9.4701693520452785  3.6758741886160800 13.9280370852187190
  1.1796784530538398  9.8231144361741212  7.9099945155564990
  6.9713428760738401  9.7828012668082795  8.0631767191025414
  1.4192995386088001  6.2378983423607197 12.4569290391034802
  6.9314295604889598  5.9974940462348796 12.0980633620373990
  1.5777319807221597  2.0153092237202799  7.9088574025302592
  7.1997456982870407  4.1442731746838399  6.2720497806476807
 -1.1940399249322398  6.0012273332242794 11.9936200901267789
  4.1902942305891209  6.2338215474705603 12.1879289110104807
  4.5203709080119996  2.5007531450157603  8.0435647151542007
  9.4105962400495198  1.6634253877262000  7.8719528733071389
  1.4305479874503200  8.2173058966834009 10.2372095521021400
  7.0271239731284787  7.7103728016042403  9.9453798905505586
  1.3153612953346401  3.7808998747462002 13.8626030592453802
  6.7300048538397590  2.2864221173112402 16.1998989334834214
 -1.6337815021236000  8.2138569705390001  6.2918906288402194
  7.0562064572401599  0.1531083850463200  9.9400613859909193
  1.0668783457245601  9.1860480265190798 13.5787193409278579
  9.6192745027082385  0.0008516978213200 13.8415776378604978
  1.6246811474424798  6.3648578931820410  8.0674984138527392
  6.6479850880512004  7.2265180370728004  6.5933284514285990
  1.2781716406127202  0.6988393770929201 10.3945402639230604
  6.8084383920238398  1.9072355849642399 12.3038583752951585
  4.1283637961171991  4.1543506263062797 10.3683143393586992
  9.6724429454458392  3.9860719116306003 10.1636227993484187
  1.6243130186275199  4.0300319222889600 10.5140241703308401
  7.0749280972706412  3.9023653762258803 10.0760799741674187
 -1.3999644531299997  9.7070059962898796 11.9132769935950584
  4.2978662317403202  9.0723482960812003 13.3483771498152386
 -1.6530550416343999  6.1197561537130403  8.2194650099616791
  4.4653011424702402  6.1001402997221597  8.2668286248065588
  4.1806866811807994  1.9116605364368000 11.8714357687595591
 10.1466641405354387  1.9028346681648400 11.6395283800166993
  0.1210006319827999  7.8566065777699601  8.2603011241526190
  5.4439797239067200  7.9734569274623208  8.3258688418139588
 -0.0576482338711199  3.8285522244322800 11.9603792935614202
  5.6160202872747194  3.8203283109786401 12.0055597099310383
  0.0571927377570400  0.5595727878081200  8.4039316450009007
  2.8999783675460797  5.9952446777698398  9.8447365512095200
  8.5398815397277588  5.9491001823731597 10.3068285251875000
  5.5212156614798396  0.1398416410944800 11.6000484139139601
  8.3432651118285595  9.8301005145059595 10.1277597835879405
  2.8542201992328797  5.3320189496290800 13.8582092964718200
  2.9421880471233601  2.2216751805212001  9.7355342670919196
  8.4158610708987194  2.0405463228951199  9.8426978029567618
 -0.0227555865767202  7.8601927883849205 11.9727883626235005
  5.7565124154213585  8.0172628392697209 11.8256283617301783
  5.5152379813624002  0.6345642320352800 15.7216503009862798
  8.3954193329643996  5.8815916319646000  6.4315019680890995
