Mo  O 
 1.0000000000000000
    11.4969640000000002    0.0000000000000000    0.6210990000000000
    -1.7806320000000000    5.4873609999999999    0.2914830000000000
     0.0000000000000000    0.0000000000000000   34.8446730000000002
 Mo  O  
  22  44
Cartesian
  2.4827527580003999  0.8835010632145500 12.4698212521007097
  8.2312338641813199  0.8835013375826000 12.7803714200913916
  3.9999776943053602  3.8520349050935399 13.7922921300237604
  9.7484597380497195  3.8520351245879803 14.1028416478940706
  0.8815960543096801  1.7878505863180600 14.7378614580239997
  6.6300779134020011  1.7878503119500100 15.0484105825811412
  1.9443568360706402  5.0749775898084994 16.1177206632738290
  7.6928380750275203  5.0749778093029398 16.4282704861139379
  4.7265495794641597  2.9023446350136699 17.3301720739602594
 10.4750318643652811  2.9023437570359101 17.6407215273229809
  1.7745318942945199  0.7317353092084199 18.1505743685045680
  7.5230142926224000  0.7317351445875900 18.4611235299463239
  2.7905143773071197  4.0482906456265901 19.5729946932833698
  8.5389965635020388  4.0482904261321506 19.8835445362817715
 -0.1758334689077200  1.8756083045827601 20.4750599916945291
  5.5726485845112403  1.8756081399619300 20.7856098313967692
  0.8868896133707198  5.1628490061931203 21.8548440049071004
  6.6353707048310797  5.1628479087209200 22.1653933782896111
  3.5169020889053195  3.0986581025844400 23.1110185981003227
  9.2653845584584804  3.0986577184691697 23.4215670509892888
  1.0662521562316400  0.5797410614902500 23.8313133881418295
  6.8147338260432795  0.5797424333305000 24.1418626187768410
  3.7217551953251204  2.4131992451500999 12.5613245575383594
  9.4702366011277199  2.4132000133806399 12.8718726859260890
 -0.3131261189527201  4.7036424933247201 12.5376625408983902
  5.4353555605335204  4.7036434810497001 12.8482106995784111
  0.9816374977184799  1.9250475614900202 12.6873425869536298
  6.7301193277870004  1.9250484394677800 12.9978924882486293
  2.5905983387010001  0.5884737026592600 14.4665179111389897
  8.3390805070896015  0.5884735380384301 14.7770677570522206
  2.1248479457757998  3.4393473853554197 14.8321959214855799
  7.8733297255111196  3.4393470012401499 15.1427457308955304
  5.4641556613787206  0.0949370521554400 14.7876920158771803
 11.2126374573774807  0.0949373265234900 15.0982411757936106
 -0.7853878915057599  2.9669443180181196 14.9898452976652816
  4.9630946752107201  2.9669439887764599 15.3003948050202609
  0.6816149829126801  1.7003162585196701 16.7749120919973613
  6.4300974331166403  1.7003166426349401 17.0854616434561208
  0.1753833879724398  4.5591728442514103 17.1655216059862497
  5.9238657959749208  4.5591722955153093 17.4760707408132028
  3.5423141245937999  1.2494944332592701 17.1204607818856509
  9.2907974960977597  1.2494941040176100 17.4310099842708297
  3.0161013228978795  4.1172714376534403 17.5315742216871016
  8.7645833859914397  4.1172708889173402 17.8421236863278097
  4.5007784854924404  2.8333240596195699 19.3719435650540426
 10.2492594604402800  2.8333236755042996 19.6824936794337901
  0.0069138616857200  0.2137947181293000 19.1807317422495309
  5.7553956317464401  0.2137947181293000 19.4912805329340948
  1.5930451589815600  2.3915546789272599 19.4272050449902203
  7.3415282033829197  2.3915542948119901 19.7377545742743301
  1.0870490025148400  5.2504120328895398 19.8179301241015793
  6.8355316907898001  5.2504127462464698 20.1284793632355630
  2.5539414199685195  3.9838115199433100 21.6030054414564319
  8.3024230587961600  3.9838108614599896 21.9135541785300596
  3.8333694797841193  1.3683686710633498 21.8242391109239087
  9.5818518552597194  1.3683668053606100 22.1347881509509818
 -0.3564723874446801  3.5113294346076098 21.7605197549425213
  5.3920077567776401  3.5113287761242900 22.0710698050602012
  0.9584859795256800  0.8748482631480901 21.8347461766764326
  6.7069686418625993  0.8748487021369700 22.1452946981318100
  0.7866597500504398  5.0254323170867199 23.9055723759144918
  6.5351418894152387  5.0254333048116999 24.2161223016721188
  2.0818932356764801  2.2468919844939697 24.0550311298353030
  7.8303731921609989  2.2468922588620202 24.3655805388226199
  3.7949652455542005  4.5375157119718796 24.3419439200472283
  9.5434481571796006  4.5375153827302199 24.6524962336090212
