Sr Ge  O 
 1.0000000000000000
    12.4751230000000000    0.0000000000000000    0.0000000000000000
     8.3143039999999999    5.8816930000000003    0.0000000000000000
     0.0000000000000000    0.0000000000000000   35.9781150000000025
 Sr  Ge  O  
  24   8   8
Cartesian
 11.5009971671993796  1.1668301374623400 17.6679585801234005
  5.4682861157066291  1.0906219823322201 11.2869463034550019
 11.2923259740644397  1.7122339417439900 14.0006981649577504
  4.9136577082235702  1.6226535223106500 14.7354058122481497
 15.8571967104662512  4.2467154487125898 17.6691429796691999
  9.6224063620803904  4.0293858924747799 11.2871049669421506
 15.4115956151608806  4.6262305720159205 14.0004017052901499
  9.3054454910616293  4.7291544354567803 14.7355562007688512
  8.2784149362689909  1.5250388866901001 16.0587823402324510
 18.7003313340919988  4.4262211900567898 12.7341292816527023
  1.9927309365934500  1.5917796923166301 12.5217814099866018
 12.5212934289982201  4.3424650582997701 16.3541745371604001
 11.7028008805161594  1.0886669075790201 24.6908963422144510
  5.4617295500997605  1.3069612967365500 18.3101459862232510
 11.3853467622999087  1.7890896712734101 21.2433870154384543
  5.0166021755274004  1.6859792405305902 21.9770469800200523
 15.8630821481428583  4.0312955605580196 24.6912845460752983
  9.4212635625677503  4.1065924649916505 18.3090983035144532
 15.3089649879954202  4.5626864077179601 21.2417658415765516
  9.2122849173004706  4.6525530891496105 21.9780065163471008
  8.3061143191006206  1.4856346608873903 23.2439907552833986
 18.6714135845932496  4.4647359862440403 19.9193484901381517
  2.1279247405100099  1.4025352201538202 19.6239836365775986
 12.3868906833385104  4.5322840542348208 23.4563335900134042
  6.2202315728388102  4.4335700125587101 16.1357308934698516
  8.1875664982830898  1.6519426477596801 12.7859924539875003
 12.3343013479389096  4.6080127337515799 12.8272928115394507
 14.4650497968770502  1.5951369626810299 16.1795925330286501
  6.1071723933867297  4.5927672090447897 23.1921574447840548
  8.3007141933654793  1.4927843292643301 19.8424844854710010
 12.3845925424582610  4.5359225871584803 19.7984868486374985
 14.4147392937862513  1.6671600579739301 23.1507621050085000
  4.2482535382030502  2.7655679314149002 12.6336920562564021
 10.3922218727088094  2.9205670695222299 16.2177048698104507
  6.2573773095129104 -0.0044816147982800 16.2175850626875011
  0.1350986738632500 -0.1443557440883900 12.6334304953603507
  4.1770819924337399  2.9364794605813600 19.7603925009131984
 10.5299841767913005  2.7963604764116599 23.3443938014704493
  6.3285901585735393 -0.1751185865355000 23.3447161653808521
 -0.0023893281779000 -0.0201868526299500 19.7605144667230519
