Rb Nb  O 
 1.0000000000000000
    10.9579609999999992    0.0000000000000000    0.0000000000000000
     6.2184220000000003    5.4288540000000003    0.0000000000000000
     0.0000000000000000    0.0000000000000000   36.0332099999999969
 Rb  Nb  O  
  12   4  24
Cartesian
  3.1092961923699898  2.7144679878477000 16.2514284854570974
 10.1267042900012498  4.2413057596349999 16.1717096926494008
  1.9492843557120501  1.2614529128117400 12.9650599246022988
  8.5881635434319907  2.7142873155865801 12.6384970680179993
  4.2690119328755500  4.1671663978298401 12.9651100107641994
  7.0497594756556801  1.1874336372570600 16.1716873520591982
  3.1086848040135999  2.7142967075039999 23.3945742041234972
 10.1843001037537206  3.6665647672681803 23.0680358501219978
  1.3879988833204904  1.3959378413132402 19.8611972680545001
  8.5883305370554996  2.7142860669501601 19.7813865905613007
  4.8302487120272000  4.0332580136231400 19.8614188722959959
  6.9909243226527593  1.7618890719034799 23.0687507490083981
  0.0000162493104200 -0.0000275242897800 16.1741963444714969
  5.4791826772600398  0.0000840929484600 13.0738769758133984
  0.0002315125633800 -0.0003204109630800 22.9590202559238001
  5.4789665125883795  0.0003329516158200 19.8590482474100973
  1.7290182929842199  0.5040843489797400 17.1666968823719976
  6.1141874051282503  3.6876488075479799 15.1207362632213993
 15.4474841044470104  4.9248361001932199 17.1668366912267985
  4.5051419925885101  1.2234184159762802 14.1781932486611986
  7.4389898882644800  4.6004406297199205 17.6314780878668991
  6.7999872371457597  0.8302331764294201 12.0496481155115998
 10.3762408812948905  4.5982258744420799 12.0496315402349996
 11.0621521127511091  1.7410866805692000 15.1205964543665985
  9.8544847170167991  0.9706225265413201 14.6734949433581985
  9.7375014781793006  0.8285577235079401 17.6313880048418987
  7.3218818368865399  4.4580322888054207 14.6735147616236983
 12.6711348038191005  4.2056542582628405 14.1784955672930995
  5.2157411133765006  4.2323021681416204 23.9833972127186961
  6.2123164493398395  1.6451935207662600 18.8665221259305014
  4.8229776548220400  1.3215636272840401 18.4017102922070990
  4.6660440057096597  1.2246446855178001 21.3597435228777002
 12.3535983353155103  4.1076766899666000 18.4019315361164999
  7.2184538843157986 -0.1312676810440200 20.9129443305012011
 10.9642516181263794  3.7841157429301804 18.8666010386603951
  3.7395336518464397  0.1320196316115600 20.9128535268120004
 11.9595505499239696  1.1964224622675601 23.9842933586513993
  9.8787042468732089  1.1301455468449801 21.8531091532013981
  7.2998253288757997  4.2974370698367599 21.8553208716312000
 12.5102442589814906  4.2050081703483002 21.3600645787787968
