Pt  O 
 1.0000000000000000
     8.0124870000000001    0.0000000000000000    0.0000000000000000
     0.0000000000000000    9.8132529999999996    0.0000000000000000
     0.0000000000000000    0.0000000000000000   27.7560700000000011
 Pt  O  
  20  36
Cartesian
  6.9582253538802901  2.3406650542949299 16.2089311932923010
  2.9899898872134902  5.5607334909439103 13.7787046298517009
  7.0532589783163200  8.7283707962717187 11.4567120286940014
  4.9739765362595705  4.0066282398399098 15.0352221963124002
  1.0164932662726800  7.1476159883932091 12.6553998233097005
  5.0638973927409001  0.6116554472610900 10.2123147053202015
  1.0560469083481800  7.2471507341143795 16.2084351923214030
  5.0254738318318797  0.6583252177459600 13.7812148888225003
  0.9534692870270399  3.8268408092172699 11.4483527330921007
  3.0409815147312300  8.9088677250862602 15.0326267262066988
  6.9957756338311796  2.2432537983904299 12.6501511504727002
  2.9470065802025101  5.5154053884091994 10.2133166994472013
  1.9927398103443601  2.2285510920831797 14.3728185896698015
  6.0011882666418899  5.5959931959006202 12.0754930854818010
  2.0065482099406799  8.9257214964511089  9.7691729492496009
  6.0187391386661702  8.7389410436081398 16.6461903278871013
  1.9935180632066700  3.8338851547507899 16.6489481710022993
  6.0209711771697600  7.1354494191912794 14.3694562193499991
  2.0105460403293303  0.6893178259006799 12.0735856883514003
  6.0070864986972001  4.0226221739768997  9.7692095872620008
 -0.0652417555223700  2.2491881668771199 14.4158438288982023
  3.9617233178575502  5.5367321386239796 12.0259421166357008
  0.0070840000064400  8.7915774681820693  9.7948328808432006
  4.0079112991690495  8.7939229337815998 16.7169644205373018
  2.0027385127467898  5.5220789892443793 15.5310308176472986
  6.0170882458446897  8.7915965058928887 13.2142946610261998
  2.0033522692509900  2.3117768982460598 10.9196301312691002
  6.0077424810078899  5.5832247798921992 15.5161363553638996
  2.0112792630147003  8.7919922743863790 13.2233439725283013
  6.0092642125389304  2.2628476262579400 10.8888980554437005
  0.0001265972946000  5.5180966730444503 12.0937002347196998
  4.0040690712779403  8.9238748385015700  9.7164583435449003
 -0.0009153465148800  8.7906793592675090 16.7177918289840015
  4.0078244438099704  2.3163405515537097 14.3542317373942989
  0.0653097815370000  7.1558590227806791 14.4159293175938004
  4.0507398850560605  0.6303229040454000 12.0260584145690004
 -0.0096245993844000  3.8846128034836900  9.7867247776748005
  4.0046016612888300  3.8873283268538499 16.7168003821636013
  6.0014756745505800  3.8853040490250099 13.2240040118728999
  2.0036654773678197  7.1616264678338402 10.9035116262987000
  2.0052142109800499  0.6761926000131800 15.5161840958042987
  0.0009809687834100  3.8841085985445503 16.7177965475159027
  4.0048360265335798  7.2239133435404996 14.3275115239267006
  0.0000025639958400  0.6115509361166400 12.0937315990788008
  4.0083973366304697  4.0172979935617503  9.7161272136298003
  1.9953522817307099  3.8848244753508996 13.2143018776044006
  6.0090210335584802  7.2181176363187003 10.9196701000099008
  6.0098875840275303  0.6155019480395000 15.5311615487369998
  5.9436411427602307  2.2470971589278799 17.7026354803310007
  6.0518645226713099  0.6837428187388500  8.6866959338741001
  2.0689690091649600  7.1537575146507288 17.7026582403084021
  1.9606041287334599  5.5905486068711596  8.6868349917848011
  6.0069401906845803  7.2915739565899598 17.7241944525821005
  6.0107220845485800  5.4487083386718096  8.6446785175473995
  2.0057424742479597  2.3849345030959999 17.7241769662579998
  2.0013655730993398  0.5421528866235300  8.6448825246619005
