 Y Ag  O 
 1.0000000000000000
    12.5508299999999995    0.0000000000000000    0.0000000000000000
     0.0000000000000000   15.3465939999999996    1.7720720000000001
     0.0000000000000000    0.0000000000000000   31.8972969999999982
 Y   Ag  O  
  30  30  58
Cartesian
  6.2774457242940001  6.1661308696850599 13.6672896649505606
  6.3248542254695996  3.0627997203347399 12.2931321831727498
  6.1762611838505999 -0.0370517422920200 13.6920283094821684
  6.5635776640094994 12.2270744959687807 13.8893670952280193
  6.2458350783476995  9.2074940071227793 12.3003220597624896
 -0.0163874932227000  6.0891162896851601 13.8125972523705212
 -0.0346855992963000  3.0729846409087802 12.2724289235450588
  0.1034847310575000 -0.0215783854255800 13.6888470147891379
 -0.3187559396760000 12.2754070591123803 13.9165505031780707
  0.1233219454140000  9.3601645331557606 12.2926898689115802
  6.2807875082897988  6.1276874982491201 17.2838840738769193
  6.2704959531980995  3.0805534276036397 15.6775993291943383
  6.3283118536262997  0.0322421197324200 17.2665216351946960
  6.2755489173560992 12.2769848424415198 17.3668865953650098
  6.2226870805454997  9.1756189779188393 15.6947628882311374
 -0.0249203005065000  6.1616013224659598 17.3116273857658385
  0.0252021921483000  3.0462599286512395 15.6488118770102194
 -0.0834542339190000  0.0097386416205200 17.2610906774438995
  0.0002102264025000 12.2769562977766800 17.3663687959104784
  0.0837569599386000  9.1983825807990414 15.6990663296942099
  6.2262172524996000  6.1453067693545798 20.6676798881214694
  6.2723105521995004  3.0420601797372000 19.2934948506228885
  6.3041156105024996  0.0005928389262200 20.6602465997142488
  5.9873296491032999 12.3266473414211593 20.8434731881692485
  6.3748380314529003  9.2451903063628009 19.2690187208457822
  0.0348139942872000  6.1354083696905199 20.6873843547754497
  0.0157474008927000  3.1184625841024398 19.1470030406125780
 -0.1241005989072000 -0.1524372578041800 20.6667808324415603
  0.3190921764117000 12.2785606307134394 20.8152291950930604
 -0.1028930849313000  9.2297306079650188 19.2714261693928179
  9.4779918413798985  4.9865707834772195 12.2439408736040090
  9.4124836627530009  2.0740716146640401 13.8991807784225401
  9.4053151306901999 14.2063075359635000 14.0256070710995697
  9.4399609438554002 11.1485708104553005 12.1632134354189994
  9.4871823121556993  8.2299704497314803 13.8234367612942499
  2.8037154802454998  7.5159014111403595 12.3482416055386199
  3.1468269330780001  4.1011748249251401 13.8565707846075803
  3.1470065354552998  1.2300405586476799 12.2201092647673288
  3.1296624179699997 13.1849071455305591 15.5944303867425198
  3.1412474616014996  9.9914153702939998 13.8756003894225195
  9.4142317423553994  5.1115643410949598 15.5396118276686099
  9.4124285646092982  2.0411318387683801 17.5579393736386891
  9.4074564277964985 14.3129504038057398 17.2972169194638710
  9.4052317931789986 11.1977231886503787 15.6695290532993496
  9.4095004559702993  8.1758689484373406 17.3756058603912784
  3.1386837035574002  7.1671348693623003 15.4037747532141100
  3.1367697019823999  4.0967422681801198 17.4204543076138201
  3.1418086092107997  1.0323807249740000 15.5848345542302091
  3.1459638124989002 13.3569707020035207 19.0629089697377871
  3.1436265969363002 10.2414112330880602 17.4351415907013383
  9.4041300813215987  5.1050200930155398 19.1043484616114831
  9.7461075666635999  1.6940979274529200 20.6116436011808091
  9.4093748221619986 14.5638158046158406 20.8569877103950567
  9.4217063891618995 11.3694380705076608 19.1380512647098868
  9.4041874386146986  7.9779021828836605 20.7405687492764805
  3.1389322099913999  7.1337330075212995 19.0612621525428771
  3.0716434451123997  4.2213406510023592 20.7168630284387376
  3.0629824938543000  0.9776928303231199 19.1366861866206079
  3.1110330954926999 13.4057569104657599 22.5694968133286373
  3.1455196386252000 10.3481388141291806 20.7070195890087767
  1.0563680932677000  4.0802804371941397 13.8480899667982982
  1.1017975795688999  1.2591268047899400 12.1757294034990977
  1.0430206620876001 13.2278383214499193 15.5284620981208796
  1.0216474771557000 10.3550590537615985 13.9030675049672183
  7.4285679402545997  4.9292538638082002 12.2004575039014700
  7.3359480862031994  2.0251265689539002 13.8682482507889286
  7.3741034879612997 14.2080943399029209 14.0036693329462203
  7.3703515428410995 11.1113273892042201 12.1603160977429887
  7.3886973420686992  8.2183299047165388 13.8488818908199498
  5.1621465893526004  7.3810740630192999 12.2483426919217706
  5.2279051570379993  4.0994929916886802 13.8282492277695290
  5.1863925337631995  1.2332116253658998 12.1633205753482088
  5.2072900422380997 13.2188690045866206 15.5366804544461186
  5.2473581904881996 10.2709538869358799 13.8750978642170590
 11.5484091393213006  5.0376046540967003 12.1643550618006806
 11.4969483516635993  2.0523287137507800 13.8526773725112591
 11.4399806363267995 14.2577760221250589 14.0000011613320900
 11.5349604229431009 11.1237137786875593 12.1182470539371003
 11.6132541320909990  8.1945406889593198 13.7203852779685800
  1.0270369290660000  7.1477800519413792 15.6133605506100182
  1.0334465124387000  4.0932607398652792 17.4002459877607158
  1.0560110221542001  1.0219926154954000 15.6097088461801192
  1.0809411123080999 13.3575207239324811 19.0700342233810964
  1.0429291665369000 10.2353152590193801 17.4070302547872160
  7.3376271362406005  5.1031672987219201 15.5899659285450003
  7.3115768845091997  2.0603951904890603 17.3916011719661476
  7.3134610151087998 14.3207001268438585 17.3255188948837393
  7.3440624488147987 11.2015461786817205 15.6556486078022701
  7.3313694179108992  8.1732179777897791 17.3682727781448989
  5.2391798186436001  7.1476525217452398 15.5698490756376486
  5.2134345520811998  4.1048397450382801 17.3708148833985199
  5.2201349381849997  1.0347258380031399 15.5925559151857875
  5.2072360736691001 13.3532012715852400 19.0772006954380480
  5.2378983789005993 10.2340783235429793 17.4072995388612597
 11.5173644102997006  5.1146698778567998 15.5598092670006487
 11.5237717345230006  2.0601738926035797 17.3463545017580394
 11.5083377278554000 14.3193353542394402 17.3248212832825708
 11.4700056104108992 11.1973003899856796 15.6618995211107297
 11.4951458014589996  8.1858070957798592 17.3503421378880667
  1.0540476958173000  7.1551220159769207 19.1074200752874859
  1.0016535029325000  4.1695218020997800 20.7963652161646095
  0.9370414535675999  1.0130168530626200 19.2399187579900186
  1.0151516695809000 13.4316159213557604 22.6141237189632314
  1.1109537865788000 10.2969332151228397 20.7321815415632322
  7.3227645688629002  5.1078627426221592 19.1332337145661988
  7.3873427309867994  1.8272696850132601 20.7128352059267407
  7.3033304871659999 14.2838193456089986 20.8583831118280898
  7.3439531310855006 11.3358502079473809 19.1964108783956497
  7.3651010286188994  7.9746732595060594 20.7980339980858986
  5.2156563000077991  7.1826475135093792 19.0930042158537425
  5.1214751227043998  4.2794520638427604 20.7602103916081404
  5.1613312874358002  0.9893807963135199 19.1117004313337020
  5.1797447356371000 13.4432555455750595 22.5728669929903063
  5.1773917060286996 10.3466598628654012 20.7294633600572027
 11.4946349826779990  5.1276461904135004 19.1114924282557759
 11.5290059326662000 14.1995381533500993 20.8292582395848278
 11.5080145439828989 11.3267217469043011 19.2035024272634978
 11.4492725178089998  7.9483982024527187 20.7844802873433814
