Na  O 
 1.0000000000000000
    11.8689739999999997    0.0000000000000000    0.0000000000000000
     0.0000000000000000   15.9892959999999995   -3.2303259999999998
     0.0000000000000000    0.0000000000000000   29.0729299999999995
 Na  O  
  78  34
Cartesian
  1.9736882444575401 10.3782515017351997 12.2789587068286998
  5.9352864940886390 10.5206761558551989 12.2803183791994002
  9.8942729759910399 10.2408185459334398 12.3013496476306585
  1.8411056330110598 12.4330523996700801  9.0562952002521193
  6.0801461348612404 12.5085170800012797  9.0244783327178197
  9.7624105738868803 12.4032280455201587  8.6581824821689413
  2.1039935558626399  1.1516427951945598 15.4732080492265407
  5.9265942509797398  1.1609575194723201 15.3812361579451800
  9.8813362690899993  1.0536850128224000 15.5321039289369001
  1.9556948798735398  3.4166260270156799 12.4357798999194209
  5.9420894339162196  3.3328779319987198 12.3836583409823806
  9.8938535264498793  3.3247206728584002 12.3868704800317992
  1.9745138502889801  6.1497504227361590  8.7158371834759407
  5.9328108634917198  6.2714761337193599  8.6920786847866403
  9.8891782189015398  6.1519257664569604  8.6016975386038386
  1.9796820763275400  7.8792452561199999 15.5297129106608995
  5.9331428386944998  7.8501711197383992 15.5123566306851011
  9.8920903903621795  7.8487771729131204 15.5092085169536809
  1.9835148054116198 14.9487637820671981 16.2474711860962024
  5.4115390560420797 14.5580549412647997 16.7802734059150005
 10.0238789674480593 14.6603173619060811 15.6193825539902207
  3.9534745303767997 11.5753982344161592 10.6863033182959413
  8.0427854327324386 11.4732514163849597 10.7278566139191405
 11.7483135355570401 11.4768168695000004 10.6560808796871989
  3.8186723021025797 13.8461607972764789  7.1785015854912206
  8.2922358966699203 14.0275227449086390  6.0469127560561606
 11.7413989086841202 13.4465495961401587  6.2928411716239410
  3.9599560583884594  2.2718635857828797 13.8023579810910206
  7.9265657449115805  2.1036782570913601 13.8292997407839398
  0.0040096954864200  2.1235003472355198 13.8464976704581808
  3.9569530892767197  4.6695203995583991 10.4972044516552998
  7.9145008141508395  4.6708726143211194 10.4996827250806799
 11.8632303661019201  4.6452761498195194 10.5075368424381814
  3.9550039663664398  6.3809502065355197 17.4219706011939799
  7.9126639717345997  6.3756003479868797 17.4132186803150191
 11.8633231814786004  6.3830358503057605 17.4161018425764418
  3.9580898996064402  9.1884524901380793 13.6282271543692204
  7.9062600668129006  9.1720114965260784 13.7319483213528173
  0.0095688855285400  9.0718009822404806 13.6365772584435216
  4.0862839579164199  0.2481711423596800 17.2007581745283211
  7.6591112343135004  0.1457472298288000 17.2262066821019992
  0.1394194965397000  0.1285491430512000 17.0715852439712990
  3.9571243585715399  6.8616509624428792 12.1918175100875192
  7.9216815434208394  6.8026690077862400 12.2196115558395597
  0.0046615395385000  6.7899787832299197 12.1795873057068818
  3.9557623938050397  9.3216813803425609  9.0232887247014411
  7.9295695448515007  9.3289007073795194  8.9255296083357791
 11.8658166155365201  9.3071060177878397  8.9967153564149598
  3.9793630177758597 13.8647772945022396 12.5604495987693596
  7.9042849508495596 13.8683764850318401 12.3030651727002596
  0.0021925555670200 13.7517929316422389 12.3155613027134621
  3.9672389795246001 15.9818139688297602  9.1601210598970386
  7.9151951491298398 15.7409181160430389  8.9580315768049594
 11.8551530545359594 15.8373166222692792  9.0385510242590197
  3.9527396035067199  4.5981566538652796 15.3676073188846196
  7.9102005661809001  4.5137381276670396 15.3859108303777568
  0.0046196420602800  4.5147342608078400 15.3848923410056599
  4.2264146433781997 11.4594237133111996 15.9817362717374998
  7.7694118648005599 11.4650545037905598 16.0427888754256394
 -0.0059611921915000 11.3277454650327982 15.7510807905989978
  1.9711213414505597  8.0644921230012798 10.6281951891791184
  5.9492559204174205  8.1205283696558386 10.7065574586523589
  9.8891264701748991  7.9993981000556786 10.6298641063835202
  1.9816057996334600 14.7772862573292798 10.6119440099959199
  5.9373725849588803 14.7825975816745583 10.6123411783753419
  9.8878993369530388 14.6691576837715196 10.4939072065298795
  1.9816049688052799  1.1909614334163199 10.3895510096114805
  6.0595782711268988  1.0729417214600001 10.2821215941439021
  9.6260322645551994  1.0867737416436798 10.0339751236011185
  2.0003029943756601  3.3330928281369596 17.1049075781649407
  5.9283821932230998  3.3386991549934399 17.0956868398335580
  9.8937825499853584  3.3296541701391997 17.0925965168390022
  1.9773745104024600  5.7494246599615995 13.7866812760225983
  5.9348505466736201  5.7091716072815997 13.7889435064312984
  9.8988932115000186  5.6579596510161592 13.8114624303351405
  1.9819877432167798 12.6693799506966389 13.8605761697962606
  6.0206692818703598 12.8105094718406392 13.9502416690556625
  9.8399415606086400 12.5131814774304004 13.7463851994533020
  3.9111393243956796 11.4423057329065596 13.1415544808504379
  7.9071918999616395 11.3711197881849593 13.1018338183394398
  0.0225534243948000 11.3926588089336001 13.1104790411152994
  7.8258646219059793 15.9724312900439998  6.8413203064160015
  4.0044452457710999  2.4585603620254401 16.0675307383588581
  7.9128687115360989  2.3288308891435201 16.2746745606334784
  0.0654611896816800  2.2634904711465600 16.1947561789922432
  3.8910494242443199  4.6487029757382397 12.8117975777266579
  7.9118842988325397  4.5988286839761603 13.0127825559871404
  0.0654074232294600  4.6592503148446403 13.0185397051192595
  3.9511959247482800  6.8887870362563204  9.8153493714126796
  7.9357138753118202  6.8624918395195200  9.7180369776996809
 11.8036585613190397  6.8095375296689600  9.7746421030946404
  3.9568022346171801 13.6603189686910405  9.5674013457487597
  7.9100746363667600 13.6540733897804785  9.9497752403595179
  0.0034697758591600 13.6608456561012801  9.8382482503657194
  1.9791852410759001  7.9430495824502394 12.9091207991000587
  5.9997167446886799  7.8762824395711997 13.0608617582668014
  9.9556714158725210  7.8164345046432002 13.0449105738532989
  1.9852615623151999 10.3047063363887990  9.9515974631958990
  5.9417614941646004 10.3051362885582396  9.8195721195330616
  9.9559868932014410 10.2456900047457609  9.9303515490509398
  2.0201559898059802 14.9405723058334399 13.0229745917170625
  5.9447616147225801 14.9798933424495999 13.0331790275377983
  9.8253156613279202 14.9094008534955194 13.2949897444522804
  2.0382612788148000  1.1291353027872000 13.0227620325642999
  5.9765774677372399  1.0670466279177599 12.9898465351320382
  9.9145707018771407  1.1317079805135999 13.0294741644484002
  1.9349367564859801  5.7111733072478401 16.3187154977173599
  5.9415623327808795  5.6841753809518396 16.2943864307591610
  9.8750017976662008  5.6863227434046397 16.2566232465866598
  6.0008285114832596 12.6434266051083206 16.0426563347168809
  3.8894024854120799 15.8094703039275188 16.0073348656869818
  9.8252837337878596 12.6439835122879991  6.4840182886580013
