Nb Se  O 
 1.0000000000000000
    11.6926229999999993    0.0000000000000000    0.0000000000000000
     5.0962699999999996   14.6542100000000008    6.8996829999999996
     0.0000000000000000    0.0000000000000000   41.3980979999999974
 Nb  Se  O  
  10  20  67
Cartesian
 15.0824366358739184 11.6640744285822020 25.4929897325170209
  8.5271932837391287  3.9547578837359003 21.4248980664890496
 13.8388212224978702  8.1442095350163015 24.7764406107500079
  7.2588134802772100  0.5089229817059001 21.8141503066297275
 12.8916701182384283  4.6740662294383002 25.0840803645061712
 11.0711055224571187 11.5130879997734006 28.5530587562781371
 11.4277560345352995  1.1848387461773000 25.5502934627464313
  9.8274410081552599  7.8928036667615009 28.5444576804471701
 15.6293710587085783 12.2941182660327009 32.2370025676488297
  8.5027769189535807  4.1459205877649010 28.2224968066625479
 12.0789466368446501 13.3892021740915013 25.6038202375048094
  5.2718692212889797  4.6245622564689004 22.7382752185056276
 12.0107265328161201  2.8689024644246004 21.8626297562831198
 10.3233117794397593  9.0317398586190016 25.0325580166561181
  6.8583987688741495 11.1513373956396009 25.2267333114392400
  3.7233254878565298  0.8597219085383001 21.9797356609530645
  5.5805592914193802  7.5575736657173005 24.4176394315615291
 15.8794568737024981 13.9833855477089024 29.2118902358325698
  9.4108126132105490  6.0536211790275001 25.2165379948542885
  7.5766030553006996 11.8290252937263016 28.3395368193598500
 14.5031037277039374 10.0794279483590010 28.7390583406872366
  8.0463083735590484  2.4695066602218003 24.7507516420075788
  3.7467981826485097  2.8091793781117000 26.8362540343942086
  6.4140537742352493  8.1898733722551995 28.7770960170789181
  7.8674907912024299 14.0095778964945001 31.7476120542749669
 13.5399606684879377  7.3752489157393004 28.5332663946211689
 11.9455124710084988 13.6225455561844999 32.3393571570552680
  5.1285623625988395  4.4564563399118002 29.1420282545811986
 11.8416633191772895  3.1723851452985001 28.4381239058609658
  9.5307276048245981 10.1129031464303996 31.2677693912333368
 13.8318481511250493 13.1403823342754009 25.2184626614271359
  7.7620835186611998 11.7011355118406009 24.0023732476091176
  8.8977176705080296  4.8278013484168003 19.9596194944525394
 11.8660786176657496  1.8487078707761000 20.5998480487023663
 13.7391555802017180  7.7612881402376006 23.0948420733482216
  5.0652687040982300  6.5193447219902003 23.0885661216914180
  6.7676745063109198  4.8380236856865002 21.8413812855258271
  6.0448667681380090  8.9824763612356993 23.7569117121282076
  5.1868356775192090 11.9840033827970007 24.9623318011391788
  9.9509434536764889  8.1517026722156007 23.6987989250702178
  7.0950131554653790  0.0806693744606000 19.7131299752014613
 14.4575689304064596 10.1917364949201001 24.6657590699181881
 10.5928985929053692  3.7951622530942002 21.9153707951414596
  8.0004777452969602  2.2259468025431000 20.9964231983982685
  2.9844940235646100  2.3293848627070002 21.9891364100437343
 13.3265543530655499  4.8048924219238005 23.3888404638450815
 12.0180927355823286  9.1245991911260003 25.1777310728049386
 11.7660331951959414 12.0244249694926015 26.5922749648026766
  5.4453010438058298  1.3317513046061003 21.7842343850910076
  7.3392778920073098 12.3438142091531002 26.5569494848014678
  4.1134511118193400  7.7820301486979009 25.2866078635544511
 15.0942040237176389 11.2561151436817006 27.3033719570630886
 14.2927705255895781 14.5138937411185012 28.7603328922462680
  8.6473291554989800  3.6100681505104002 23.6551921005482555
  6.6425686271926700  6.8228337041744007 25.4241118530519401
 13.2672667655030203  6.5652093219061003 25.7144703157821475
 10.8950211097802985  5.4755640308046001 24.7666377481340980
  5.6426534805113100  3.8626551480912004 24.1367685849309588
 11.7250996724716003 13.4377501064005003 29.0388311448836269
 14.0261936182801286  8.8240646442199004 27.4376483438500074
 11.2941465998668189  0.5081798667168000 23.4598132250626179
  6.8828909985716091 13.1318525582607002 29.0616036866187883
  9.3065700730140293 12.3391298443844999 28.3071643346858082
  3.8828269514363702  0.4615926677058000 23.7791672606161804
  2.9126444480942100  3.9484407468891005 25.8011093592258298
  7.4753617348509795  1.1035320601238001 23.7188372604261382
  9.9383817298648509  7.5103435865136001 26.3536615716897558
 11.9800875322340978  2.8980011826794998 24.9111226988973300
 13.0630819217822989 10.8966829821120008 28.9598995303287587
 10.5314953029224192  9.8598523431031015 27.9301362629162284
  5.4504062427012201  9.4149741207812010 28.1585845600557363
 15.5124382747932188 12.5760665853116009 30.1939129406441786
  9.4885734782459803  1.6873537349344001 25.3097618887626794
  8.8986549799233092  4.9258898892202003 26.4516220289808182
  8.0381574081094893  8.7095490270907003 28.1377485523481887
  5.1190964744404290  3.9689865354775007 27.3706687051718909
  1.6751099576714901  0.6128827317458001 25.4844789735365183
 12.0610408963066398  4.4104468098590006 27.3449086696945578
 11.8419859327856098  7.4009293929696005 28.5418685744014162
 10.7912182091659989 11.1256044563375003 30.4740888512029890
  8.9634298771977896 13.7932676888529020 32.9456895696341689
 15.9620528737046783 14.0165058208141016 32.9832431642665682
 13.3082594423304101 12.7332340133563005 31.9715932896497890
  8.1416018809238793 10.7443602358932999 30.6470408590717689
  9.2208728730960683  6.2352684648772003 28.8580806323104362
 11.4662908814066391  1.7463433780368001 27.4482740626604986
 13.9350476630519982  8.3701304132022010 29.8780944406534772
  4.4856591706461693  5.9705479279585001 29.1126985991069915
  6.8995259462471390  4.7947363216833008 29.1947759861320435
  6.5351435564323195  8.1639641428067993 30.4226251506584369
  5.5131913023939187 11.4494885818313001 32.3630062345187497
  9.8444800008972599  8.5832269525908007 30.3834989802766806
 12.1265639331672901 14.3946623992113008 33.7595637568847664
 14.7988637638588774 10.9847071580295008 33.2681368710702898
 10.1752012927912894  3.5277006461950005 29.0505908955919949
  7.8504718651171403  2.6353145035667001 27.6342985549252305
  2.8508854859271198  2.7064438407752003 28.2246054187841793
