 K Ga  O 
 1.0000000000000000
     9.8829790000000006    0.0000000000000000    0.4305270000000000
    -0.1104900000000000    8.8505880000000001   -0.4286690000000000
     0.0000000000000000    0.0000000000000000   35.8572619999999986
 K   Ga  O  
  24   8  24
Cartesian
  4.7648177138612304  2.4547220875644000 13.8803259946936901
  9.6510673259990192  6.8800103346822006 13.8812461700091898
  8.0097986180942211  1.0780685288452800 20.2933932593515785
  3.0130663332309005  5.5033592541277194 19.8637987398286313
  4.9376500536565500  1.1033645714198401 22.4311948307053086
 -0.0590821235377800  5.5286545886552396 22.0015938954739880
  6.6322572771765813  6.9864212197238400 16.2954123923419978
  1.7460128081137800  2.5611247415592002 16.2944870980955194
  2.0285155174747902  8.2157063813372400 22.4039617997077976
  7.0252516158186209  3.7904189307723599 22.8335516670846879
  8.6852905328958023  0.7474737543636000 17.0600471348547025
  3.6885564403688602  5.1727667807989199 16.6304517092377111
  4.8348362337431201  7.7472269688153599 13.4279295430288599
 -0.0514128670610100  3.3219294285801602 13.4270234607964500
  3.1402310188609901  1.8641677538408401 19.5637118332389583
  8.0264779431999411  6.2894654710878006 19.5646454222737880
  1.7626888718364300  7.7725216838017204 15.5657315889187977
  6.7594171913542498  3.3472319320839601 15.9953319848118980
  5.0076680871237906  6.3958688331296401 21.9788044832554981
  0.1214300187944400  1.9705742135884801 21.9778643187810410
  7.7439741909072408  0.6348802910745600 13.4551633147461196
  2.7472364825593703  5.0601700427923202 13.0255768527571689
  1.0871935068314000  8.1031157502363591 18.7990790313152303
  6.0839308242797108  3.6778256444950803 19.2286769675536995
  1.7382245337698299  0.6746848370398800 13.3334077944799798
  6.6244679355931408  5.0999797220986798 13.3343359871098706
  4.7288611686998010  7.9348559826860408 18.7686722007696289
  9.7255973090298298  3.5095651688977201 19.1982697610657596
  5.0436243667330505  0.9157324598433599 17.0904544399922500
  0.0468902443738100  5.3410278759374403 16.6608581814893881
  8.0342642298990903  8.1759062606659203 22.5257206526182117
  3.1480189679881705  3.7506099595130400 22.5247931639204673
  3.6700236672990902  8.2086851213709604 20.2765677319607107
  8.6667581264177915  3.7833943960885201 20.7061648562079377
  5.0625677232121005  5.1794258747042408 14.3203276264595587
  0.1763207254560600  0.7541261218220400 14.3193977174395304
  2.4055218392203201  2.2915296356676000 12.9482179531815778
  7.2917691175034403  6.7168227506088005 12.9491413794341188
  6.0710445132855302  0.5131527554518800 18.7178041507535369
  1.0743114924176800  4.9384470209695204 18.2882058438998989
  3.7014416962774499  8.3374371031716006 17.1413231687034298
  8.6981770835357608  3.9121432801833600 17.5709194060143794
  7.3669666135955305  6.5590626126146399 22.9109129352821697
  2.4807176728843801  2.1337680815793600 22.9099855601282592
  6.1024647375123706  0.6419030556408000 15.5825583293688279
  1.1057277424598202  5.0671990027701597 15.1529619202929986
  4.7099192537863006  3.6711658425427203 21.5387992788464615
  9.5961673094489406  8.0964600195544794 21.5397305766985205
  7.4697025894034796  0.9955400704628400 22.9758864389358308
  2.4729702724980602  5.4208333624158005 22.5462928708167247
  4.3462833057632100  2.6350086536302801 17.1622426500780598
  9.2325299247735906  7.0603070789242794 17.1631801362023779
  2.3027857579531803  7.8550527088546795 12.8832368894774891
  7.2995174051480713  3.4297576467841204 13.3128373260732786
  5.4262042217340403  6.2155785498167999 18.6968823439397802
  0.5399573420847801  1.7902851693579600 18.6959521348886106
