Rb Ta  O 
 1.0000000000000000
    10.9655009999999997    0.0000000000000000    0.0000000000000000
     6.2566490000000003    5.4278570000000004    0.0000000000000000
     0.0000000000000000    0.0000000000000000   35.9287199999999984
 Rb  Ta  O  
  12   4  30
Cartesian
  3.1588150071678700  2.7410101954372301 16.2450902676671980
  1.4765435489681003  1.4659861773949101 12.6268443277415994
 10.2237401614980392  4.1561365385635902 16.0739567442863986
  8.4280561923294197  2.6382658560556700 12.6267749853120002
  7.0506885201274496  1.3580714785494301 16.2485261311608014
  4.4371303314499198  3.7205072657861700 12.6133024338863997
  3.0278763063852399  2.5436422420889500 23.3020122013943976
  1.5659167678838000  1.3606611091241301 19.6801514729495999
  9.7925461967360690  3.8677903742883601 23.3153227142928010
  8.6422697639916102  2.7404433643307207 19.6836211094400007
  7.1428933029246204  1.2548709820655901 23.3019435775391983
  4.7838561810697806  4.1070772872976500 19.8549446957496016
  0.0169543283496800  0.0208376515801400 16.1039026138319983
  5.6025552890143002 -0.0110390127308900 12.6498577507631982
  0.0064088021159400  0.1204007239740000 23.2788644049600002
  5.5059950347304909  0.0141255636139400 19.8247810981607984
 12.8193574236298886  4.0025161898996204 11.4911813215799992
  4.3663058083435704  0.9442413479411301 14.1230484462312003
  7.3728860616554206  4.4259375609412004 17.5368146991696001
  1.7864150810557100  0.2658782015665700 17.0507903765183997
 15.5070384801944599  5.1492862976246299 17.1083819589551993
  5.8046726225343201  3.7540154896328302 15.1027477531703997
  5.7992990974552301  1.5081369065498200 11.6632385723520002
 10.1350712691231397  1.2545183341963000 14.6494106614007986
  7.1224665884458904  4.2970801272040609 14.5874515837607994
  9.9158244462334100  0.9951393943229601 17.5852419429959994
 12.8761364448347102  4.5070929790552503 14.3233014785975996
  7.3425275839606297  0.2585423442739300 13.6895253249671995
  9.9418667336696203  5.2861699577862407 13.3111765018583998
 11.3169828719087189  3.8484110793269801 11.4976951985159985
 11.4602941321730007  1.7607015519096501 15.1853766234264000
  4.6485056994414204  1.2466259587254502 18.3918492520271997
 12.5765187436720716  4.2483723296788707 18.3434679969623993
  4.4858892224096696  1.0171408870010401 21.3412303317959982
  1.5381406017203398  0.1009783318280400 24.2654850205199999
 15.5991789405127186  5.2328066330335803 24.4308645593927984
  5.8633952944742198  3.6684831561911202 22.6175672110968016
  5.9981904463731004  1.7312801787125702 18.8777952500688002
 10.2145932442916401  1.2555154315272001 21.6055194811055991
  7.0344496674735311  4.1897141304227103 21.8056356250488008
  9.7072996862405496  1.2705088009183001 24.4376055058392012
 12.8643508754253908  4.4290660148802905 21.2793488601911989
  7.2959195233778393  0.2416473794614500 20.7432492433271989
 10.0188424736023798  5.2170283412417104 20.8260940451904020
 11.2216587259070089  3.7694512836480003 18.8204440307687975
 11.4842207539885912  1.8048580913403403 22.2391238954544015
