Na Si  O 
 1.0000000000000000
    12.3151560000000000    0.0000000000000000    0.0000000000000000
     0.0000000000000000    9.7525259999999996    0.0000000000000000
     0.0000000000000000    0.0000000000000000   31.8885180000000013
 Na  Si  O  
  32  16  48
Cartesian
  4.0928662352390397  2.4617129128174797 20.2786598896840822
  4.0928664815421598  7.3379764979690396 20.2786595707989008
 10.2504439889359187  2.4617129128174797 20.2786598896840822
 10.2504449741484009  7.3379764004437789 20.2786595707989008
  4.0732278717236401  2.4522549131026801 16.8435349784811592
  4.0732292263907999  7.3285178155774195 16.8435317896293597
 10.2308067337845614  2.4522543279511200 16.8435314707441819
 10.2308072263907999  7.3285180106279393 16.8435317896293597
  2.0843491430638799  0.0141229254763800 16.8435311518590005
  2.0843500051248003  4.8903870957795004 16.8435349784811592
  8.2419268967607611  0.0141229254763800 16.8435311518590005
  8.2419267736091992  4.8903866081532001 16.8435314707441819
  2.0647116416094002  0.0235807301406600 20.2786579763730010
  2.0647116416094002  4.8998449004437790 20.2786582952581824
  8.2222898879125204  0.0235807301406600 20.2786586141433602
  8.2222898879125204  4.8998447053932592 20.2786579763730010
  0.9944402263908000  2.4522545230016397 15.0449862103706398
  0.9944402263908000  7.3285190834057996 15.0449862103706398
  7.1520167485720796  2.4522547180521594 15.0449855726002806
  7.1520181032392394  7.3285183032037198 15.0449846159447418
  1.0140772352390399  2.4617126202417001 11.6098593858566392
  1.0140780972999601  7.3379756202416999 11.6098593858566392
  7.1716560972999597  2.4617127177669600 11.6098577914307413
  7.1716553583906002  7.3379755227164392 11.6098581103159209
  5.1435006416093998  0.0235809251911800 11.6098565158900211
  5.1435000258515995  4.8998435350901399 11.6098584292011004
 11.3010788879125190  0.0235805350901400 11.6098558781196601
 11.3010777795484803  4.8998444128174805 11.6098565158900211
  5.1631378967607606  0.0141228279511200 15.0449865292558194
  5.1631380199123207  4.8903867056784591 15.0449862103706398
 11.3207160199123198  0.0141228279511200 15.0449852537151010
 11.3207171282763603  4.8903864131026804 15.0449852537151010
  0.9823966195806001  2.6209270933536599 18.6286545350063406
  0.9823978510961999  7.4971943844651001 18.6286538972359814
  7.1399753584899601  2.6209276785052196 18.6286548538915220
  7.1399763437024397  7.4971938968387999 18.6286542161211628
  5.1751815035709594  0.1827949106768400 18.6286542161211628
  5.1751819961772005  5.0590585933536598 18.6286538972359814
 11.3327592572678402  0.1827953007778800 18.6286542161211628
 11.3327592572678402  5.0590582032526203 18.6286538972359814
  4.0611866047930798  2.6209301166367203 13.2598615516825813
  4.0611845112165605  7.4971906785052198 13.2598672916158211
 10.2187648510961999  2.6209274834546998 13.2598666538454619
 10.2187646047930798  7.4971938968387999 13.2598666538454619
  2.0963921341162801  0.1827989092125000 13.2598676105010007
  2.0963943508443599  5.0590541071917006 13.2598618705677609
  8.2539708730256400  0.1827950082021000 13.2598666538454619
  8.2539695183584794  5.0590582032526203 13.2598669727306415
  5.6473485254608802  1.8192795987807000 18.6285591883375226
  5.6473490180671195  6.6955419161038794 18.6285595072227004
 11.8049267717640003  1.8192802814575197 18.6285588694523412
 11.8049270180671204  6.6955418185786195 18.6285588694523412
  0.5102366173296000  4.2574013462547002 18.6285591883375226
  0.5102347700562000  9.1336647363557404 18.6285585505671598
  6.6678146173295998  4.2574012487294395 18.6285591883375226
  6.6678124006015196  9.1336651264567799 18.6285591883375226
  1.7688387871938001  2.3584632126312601 17.2349770601421035
  1.7688403881640800  7.2347271878838599 17.2349757846013780
  7.9264169103453606  2.3584636027322996 17.2349767412569186
  7.9264178955578402  7.2347269928333402 17.2349754657162002
  4.3482154530788399  4.8013276134990592 19.9950893300580006
  4.3482158225335201  9.6775910036000994 19.9950883734024600
 10.5057938225335192  4.8013278085495799 19.9950890111728192
 10.5057939456850811  9.6775911011253601 19.9950883734024600
  1.8093574977072000  2.3631978689537401 19.9950823145840424
  1.8093584829196798  7.2394614541052995 19.9950835901247608
  7.9669351282525209  2.3631975763779600 19.9950823145840424
  7.9669372218290402  7.2394615516305603 19.9950832712395830
  4.3887355182594003  4.7965946151059997 17.2349697257829604
  4.3887347793500400  9.6728563472776194 17.2349710013236788
 10.5463131488047210  4.7965938349039199 17.2349690880126012
 10.5463125330469207  9.6728567373786589 17.2349706824385009
  2.5685644515232799  1.8192827195890200 13.2599626382846409
  2.5685566929750001  6.6955408433260191 13.2599620005142800
  8.7261376486124398  1.8192797938312197 13.2599604060883802
  8.7261380180671200  6.6955418185786195 13.2599600872032006
  3.5890221690859199  4.2574009561536599 13.2599629571698205
  3.5890251247233595  9.1336670769619790 13.2599610438587412
  9.7466039867842813  4.2574012487294395 13.2599600872032006
  9.7466012774499600  9.1336647363557404 13.2599604060883802
  4.8881441578275604  2.3631968937011396 11.8934500352490602
  4.8881496996477605  7.2394599912263997 11.8934315399086206
 11.0457246208587598  2.3631972838021800 11.8934363231863198
 11.0457259755259205  7.2394611615295199 11.8934353665307810
  1.3099470108656399  4.7965957854091199 14.6535533763799197
  1.3099443015313201  9.6728545918229401 14.6535514630688404
  7.4675247645625209  4.7965939324291798 14.6535482742170409
  7.4675236561984804  9.6728573225302199 14.6535466797911393
  4.8476261862235202  2.3584627250049599 14.6535460420207801
  4.8476320974984004  7.2347273829343797 14.6535460420207801
 11.0052059103453601  2.3584642854091200 14.6535409398579013
 11.0052071418609589  7.2347268953080794 14.6535418965134401
  1.2694283003522400  4.8013289788527000 11.8934427008899206
  1.2694252215632400  9.6775892481454200 11.8934267566309213
  7.4270048225335197  4.8013280036000996 11.8934289888271802
  7.4270049456850806  9.6775907110243207 11.8934299454827190
