Cs  Y  O 
 1.0000000000000000
    12.9848579999999991    0.0000000000000000    0.0000000000000000
     0.0000000000000000   12.1163050000000005   -0.5404930000000000
     0.0000000000000000    0.0000000000000000   49.9983399999999989
 Cs  Y   O  
  48  16  48
Cartesian
 -0.0000119460693600  1.6424566208527500 18.7203076257044501
  0.0000025969716000  7.7620191587886502 23.5133485041191115
  9.1987175225303996 11.9503352482947509 18.0268924882850499
  9.3172422675657582  6.0067588902445497 23.4920932439979673
  3.7860912648577796 11.9503421545886006 18.0269091796396381
  3.6676245621376800  6.0067340518193006 23.4920413537682187
  9.2801854305624598  8.2385186606433010 15.3819407316212207
  9.9047912505389988  2.8861506199372999 21.1045615118322196
  3.7045420716146396  8.2384785556737512 15.3820955155734485
  3.0800392215620396  2.8861495294698503 21.1045930594307904
 12.9848294333124006 10.1848506357764013 18.3623389954329568
  0.0000225936529200  4.2112578283713997 23.6276994262595608
  6.4924231568139001 10.9751826713604004 20.7062312952981600
  6.4923914737603798  4.9689812523089003 15.9364430812274573
  2.5244045524297798  3.3791699766811503 16.2915311113050123
  2.7818455933522799  9.1655439413241009 20.9244269198851391
 10.4603817711540579  3.3790869799919006 16.2915968116236591
 10.2029724132850781  9.1655739897605013 20.9244340791803012
  3.4180009251254995  0.0079072218060500 23.8041454332850684
  3.4944523929664197  6.1580247788540001 18.7190257116140018
  9.5668263007610399  0.0078837161743500 23.8041144829038913
  9.4903122459045601  6.1580524040294007 18.7189879805017583
  6.4924128987760792  1.1270735941551500 16.0234430111008095
  6.4924357521261591  7.3969479828448010 20.9608791517781192
  0.0000640153499400  1.6901265265925500 28.6334624333963710
 12.9844650781969193  7.9596543889592004 33.5668701664342777
  9.2739328318897183 12.0403173508664008 28.1305434151891589
  9.0223932790796404  5.7089461714970504 33.2997096090956717
  3.7106487204834600 12.0401763170762006 28.1309201942270803
  3.9627759679666199  5.7088403961544003 33.3001128143693563
  9.9092793368581198  9.0812693453857509 25.7919093217664468
  9.9872409436844389  2.9288528406270999 30.8740871976567384
  3.0755619126750595  9.0815434162048501 25.7917266014753892
  2.9977793670405597  2.9297424197402004 30.8732355416190778
  0.0001014117409800 10.2250085535792508 28.3461260694365471
  0.0002659298918400  4.1160150684948498 33.6560552735815861
  6.4924887303467997 11.0219524568017508 30.6920323456128479
  6.4925349564412800  4.8747686206834500 25.9660494327908253
  2.8234512858101399  3.0788365818414500 26.1025183123842304
  2.7037755629616598  9.2537971683353017 31.0233311298922203
 10.1614248929910591  3.0789199420198505 26.1024790949709882
 10.2809007788749192  9.2542259643692510 31.0229110151581473
  2.7871060190252397  0.8490641277888000 34.2065958718509222
  3.4116896348946000  6.2013977581886000 28.4917938670990409
 10.1976613466659192  0.8495055247799501 34.2088591058953284
  9.5735280456720009  6.2010553514092992 28.4921941286492206
  6.4922172169660195  1.3227261121755001 26.0801600165381018
  6.4923244718930997  7.4432431726193000 30.8649540873036194
 -0.0001129682646000 11.6553330276550504 14.7990907667130713
 12.9848368346814595  5.7800333810733999 20.1979388867755603
  0.0000762211164600  0.0300443168563000 22.1155819549318196
 12.9848124231484192  6.2212225775926502 16.9885458981981081
  6.4923797873881792  9.1224350974385011 17.6073711444945005
  6.4924125092303395  3.0021018413415503 22.5591856080421707
  6.4923574534324198  3.1516433374234003 19.2676388130543614
  6.4923462864545396  9.2476802517560515 24.2436885984478714
 -0.0000492126118200 11.9545879501867010 24.8082701251359801
  0.0001304978229000  5.9368535050579005 30.3258613494764617
 12.9844683244114183 12.0807152926713002 31.4458351830656184
 -0.0000196071355800  6.0830154001861008 27.0342763204759393
  6.4924030302839997  9.0561494583705997 27.4776779558960342
  6.4925588485799990  2.8706728884411499 32.6058436214850076
  6.4930556492470801  3.3066488024080503 29.3928018196964658
  6.4922417583476397  9.5453846507368496 34.2495277369553861
 -0.0000416813941800  4.5156469139837503 18.3631748523810501
  0.0001812686176800 10.5727956992775507 23.0980904514089715
 11.4620861761003798  0.0471658674518000 16.4272055192833193
 11.2664773409423393  5.6597918972317007 21.4366457585291776
  1.5228136351423800  0.0472995102959500 16.4271980576953318
  1.7182487329003799  5.6598814367256507 21.4365897660123110
 11.2602627879035406  0.0639869336833000 20.8695531371008194
 11.0456141256115199  6.1849736221089007 16.0723868893066602
  1.7245743064750798  0.0640645991983500 20.8695531724244887
  1.9390465045468799  6.1849624751083008 16.0724393848338174
 12.9847994382904197  7.4592301524146007 18.8053522968046387
  0.0000293457790800  1.4071725173187501 23.8180884477000490
  6.4924428937980601  1.6374016984067499 20.8563632074708529
  6.4924154957476796  7.6496224977822500 15.9991080241565502
  4.7521341856414798  8.8758392115564995 18.8428528200972991
  4.7404052231072402  2.8937414850198002 23.7821999811765181
  8.2326498006679198  8.8758475718069505 18.8429704432395297
  8.2443712319845197  2.8938127288932001 23.7821718039076764
  4.8038517064182598  3.2468243041444498 17.9558413229926295
  4.7092922048534396  9.3150276426310992 23.0864621382003392
  8.1808806001562999  3.2468161862201002 17.9558171859363398
  8.2756339656510605  9.3149743308891004 23.0864350173489399
  6.4924180927192792 11.1866713211787996 17.0016397381383193
  6.4924014721010392  4.5374733469738002 20.9800487874605182
  0.0000284368390200  4.5496531414120005 28.6163589103247951
 12.9846086907263985 10.0152482946691013 32.0495510614413419
 11.1999848696416802 11.8845807880380505 25.9653052446988681
 11.2966080546884395  5.8410441867595502 31.6363249147235699
  1.7846978347753200 11.8845889059624010 25.9655978728409629
  1.6890024178326599  5.8409229025464997 31.6357398446630995
 11.2427604978053388  0.2112163964450500 30.7499386597394668
 11.2328426632649396  6.1940626683046505 25.8128920295139110
  1.7422965600677998  0.2116792392960500 30.7514009636712693
  1.7522101096050600  6.1941134356226000 25.8128887648814356
  0.0001349126746200  7.4502971642272504 28.7349171268115491
 12.9837984355871985  1.4414536637074500 33.5900117198390262
  6.4927432335636004  1.6310194347480000 30.7906330929005989
  6.4923079811234397  7.6799460954688001 25.7754781957435206
  4.7684731623114596  9.0201533701722010 28.7247268456544838
  4.5555434355214794  2.8989688224859500 33.5246603281171289
  8.2161553952476805  9.0200726755809004 28.7247099460184572
  8.4297487781300386  2.8991206397876002 33.5252740351392404
  4.7749353365923195  3.4286081359726501 28.1539208200823090
  4.9649093926212595  9.0437146157121511 33.1649338537090017
  8.2103348028006007  3.4292195247229498 28.1538300489137328
  8.0201992151381383  9.0437430890288990 33.1648450864554576
  6.4925319699239390 10.6299899900517509 25.9557431247052506
  6.4923253808331589  4.5741766638950496 31.2242063273582673
