Cs Ir  O 
 1.0000000000000000
    22.2279629999999990    0.0000000000000000    0.0116320000000000
     7.9737090000000004    6.4940129999999998   -2.3635579999999998
     0.0000000000000000    0.0000000000000000   48.0900749999999988
 Cs  Ir  O  
  48  12  48
Cartesian
 19.4486971854368988  1.3523911952759999 20.7783181542340998
 17.3660263538990698  5.5914324725347200 15.7895851747920233
  6.9065606448022798  3.5480078989577999 13.1447070862852708
 16.6403146871014798  2.9701999102164298 18.4913923043302297
  6.6350407819476906  0.8300205823715999 15.8005633328753596
 26.6667192205619727  5.0104513791612897 20.7026871458491115
 23.7013312543565391  5.7264372880732797 18.5666980450997698
 13.3734571835943292  3.9117540618808202 16.2367770188908587
  3.5412334269066301  1.4865376971163500 23.4419532059212692
 12.8613738221591110  0.7019942332028400 18.4587799487714221
 10.5033196065607193  5.1973566063563696 13.5982390797679180
 22.9115118898891197  2.9437822653324299 20.9037924928864385
 23.7663936569821779  4.2198759512727300 14.5761551401916289
 13.3715933865617984  2.4580011945745799 22.0072659398212593
  3.2556295571217602  0.3379903229038500 19.6656610979218378
 20.2437977913667169  6.4660339995704099 11.8627296583194521
 10.4315370665545792  3.9285889463616299 19.4776023044317803
 22.6246429686830091  1.6763452286013898 17.0342857557498668
  7.4959400021868303  4.8392581566591897 17.2352294773547001
 19.8901124353423207  2.1155874097756500 14.6602505930682785
  9.6213249551431197  0.4287524669154900 22.2259119252166073
 26.8260771237107392  6.2052656736929395 14.9148259388211883
 16.8517958724127475  4.0544882465123697 22.1672479495645867
  6.7863197372845798  1.8772591458196799 19.6592619290636286
 19.5252629026658688  1.3758847809264900 30.4345726045621099
 17.3349601003437286  5.6988555913590293 25.6794215103976775
  7.2660886220727896  3.5206134246383396 23.1727514153624412
 16.6248300321777904  2.7379175074233300 28.1062619837458705
  6.5264680582468788  0.6515466621346799 25.4760385289135804
 26.4390174663671687  5.4647520725003398 30.6832024215417576
 23.7283084885466415  5.9067086861684706 28.3050930362177517
 13.6888773157708190  3.6442915775226901 25.8685269816173147
  3.8837318644065899  1.0973734477902899 33.4769415620747921
 12.8937029038640691  0.7502290342813800 28.0359151365351416
 10.7500530790994393  5.1158860312049992 23.3356144262774094
 22.6274690098090190  3.4013441221198200 30.7930617521992680
 23.4389781591803121  4.6301883435740692 24.4463079647298294
 13.6219602176391881  2.3701081704464699 31.7541540943539502
  3.2895652008855598  0.3796290250980300 29.2393196998398039
 20.5784050845698090  6.0870695717628003 21.8994094703504416
 10.7506248968310292  3.6615673405460698 29.1098190931221623
 22.6463099610776091  1.8492986533271398 26.7907224369222732
  7.4814328901506499  4.6025855413175698 26.8483292347148392
 19.6815621596554493  2.5679214562177801 24.6488838980077603
  9.5090524300325701  0.2587694686760700 31.9075592201234670
 26.8976055264732281  6.2235091745335795 24.5727034045167798
 17.2093841270704218  4.0250992659802201 32.1971129948064174
  6.7548818514455400  1.9690486426879199 29.5464126549769972
 20.1061673894790296  4.3607171311147797 18.4999716038906286
 10.0748289263634305  2.2873395719766600 16.0688068576418885
 22.2204871364595569  0.0228155457531600 23.3028652294574599
 15.8254808038073680  1.5571850255012700 15.3438505622130705
 14.0572474328902199  5.3973794800509296 19.6661230616373395
  4.1258964466109704  3.1596081248421002 17.3346405844387803
 19.9932556150624521  4.4174268789188398 28.0120628227651807
 10.0643789374033794  2.1761537570800198 25.6729420109932072
  8.3016131082064195  6.0299971333326896 30.0156959847954639
 16.1546928136482002  1.0616176719728101 24.4189531559607218
 14.0510594877685797  5.2830680317572600 29.2763980592851887
  4.0120649747894701  3.2182099033337099 26.8447286246500489
  5.2545143822909699  3.3035907834729001 15.8036254959048801
 17.2735425043968576  1.2107878131281400 22.8314386748552707
 15.1974893778957902  5.5398059134064095 18.1018943340901792
 14.7363844624838691  0.3854146062198600 16.1609692787024493
 12.9277637343972600  5.2541566209411297 21.2310214574000504
 25.1847610197910505  3.0548921002769700 18.8728135479659933
 26.5103603314196405  5.0497748358407097 17.6525549933754284
 16.7357166179344787  2.9373954684870598 14.6496171124123897
  6.3666782490630300  0.7794305326582199 22.4021579904034596
 23.8639598231576109  5.6617259421512696 21.7018563499436787
 13.7652974778357606  3.5181668701807198 19.2850243223966800
  4.0467351248172303  1.2562214866392598 17.1049974257350392
 21.2352587716882226  4.4900113064415299 16.9766662239240418
 11.2454679450159603  2.5070251481128802 14.5796255316293504
  1.1219855488376400  0.1682100028101600 21.7312369177728293
 29.2402141143104082  5.9665287414988795 13.7471354278664002
 18.9942070601046282  4.2270805391751898 20.0862234822573988
  8.8666230318761698  2.0892429524181599 17.5649786198534983
 22.5281124565631714  2.1510202383266401 14.1797031517498588
 20.3954742953911499  6.2332680525693300 18.8763978068244072
 10.2812814655858507  4.1683177741013093 16.4428139235698190
 19.7626026978163516  2.5208670718822499 18.1390632558866507
  9.9497553069949198  0.4194637554209400 15.7428753364577112
  7.7008793406880507  4.6363613575114799 20.5583105255700609
  5.1292738878217206  3.3504249558275996 25.2481957964917783
 17.1200282264954389  1.6067018096861398 31.6120774728421416
 15.2614446958727399  5.4847411640353796 27.7710251196060192
 15.0272350456635593  0.9111985372971899 25.9791868954101659
 12.8791833884325015  5.0660958490728296 30.7736447901398122
 25.1122919662985709  3.0876265365461997 28.3836949404341325
 26.5841788865560495  5.0618741561616600 27.2123747736235693
 16.4209508252649883  2.9443489978469399 24.7820100742761937
  6.2043975613112998  0.6700205056164300 31.9653052232749531
 23.7823183817622592  5.4671325828457498 31.1479940656896375
 13.8410807637660298  3.3963486675596997 28.8996777083570713
  3.7234986124039797  1.3344427823860801 26.4677477195245316
 21.1662420831110083  4.5206449944453899 26.4819395780856190
 11.1935272082459694  2.3169024621769498 24.1070748174939844
  1.3563221794128300  0.6963713920467900 31.4956075953748957
 29.0780855731753221  6.3670877756755200 22.5188924321633692
 18.8620954231363207  4.2719313100794301 29.5418190425192364
  8.9235786887528690  2.0343197075904000 27.2347730961827281
 22.4837760822164121  1.9107626680484999 23.6554622367512373
 20.0748423837845991  6.3254735559103494 28.2365870629225952
 10.3594018029461701  4.0540914623180706 26.0558248592448649
 19.8332642539964681  2.5245198892546199 27.7012276230049181
  9.7811589482929495  0.2995951853827800 25.2978565995142581
  7.4226265149271207  4.6057569575062498 30.6705147149306789
