Pt  O 
 1.0000000000000000
    10.5817309999999996    0.0000000000000000    0.6960940000000000
    -4.2507599999999996   13.8320419999999995    0.3951960000000000
     0.0000000000000000    0.0000000000000000   33.6077500000000029
 Pt  O  
  40  72
Cartesian
  2.6619539537284997 12.4706379281145203 13.2534647552336597
  4.7873314773983999  5.5546008829457998 13.0558668177730013
  0.5591555659218400  2.0966137590967802 12.6090057994344011
 -1.5662314198517495  9.0126199588118396 12.8065935437397211
  3.4486931193453496  2.7998241237044397 13.4750028347584205
  1.3233278659177703  9.7158322599053797 13.6725917670720207
  7.6768951197696005  6.2578155354864791 13.9218375479812408
  5.5515123278186991 13.1738352906026996 14.1194359757404015
  1.9509848627050799  0.0827544791980200 14.5291996320860815
 -0.1743938882893101  6.9987752025571801 14.7267980368300027
  6.1791589508961096  3.5407602763037400 14.9760537117115611
  4.0537829466348807 10.4567844576734004 15.1736531380033206
  4.6744970416669496  0.8944902154151599 15.8551499566385807
  2.5491153078891498  7.8105099705313794 16.0527494622396425
  8.9026697280105598  4.3524998854926400 16.3020007722220619
  6.7772888796653188 11.2685222686968398 16.4995967674329016
 -1.0437187566104700 12.0781365846324391 17.1446470309142427
  1.0816613112161406  5.1621122649423592 16.9470508898837409
  7.4352153731847803  1.7041009350198399 17.1962984187194436
  5.3098365805861691  8.6201211050973203 17.3938967937336422
  1.7165766189686500 12.8964024278777796 18.4726419701188398
  3.8419584395684101  5.9803810129165198 18.2750433974830031
 -0.3862153257504099  2.5223710661982000 17.8281961942777620
 -2.5115962319850795  9.4383891614693791 18.0257943290281233
  4.4772994626157407 13.7059936443032395 19.8137669242501815
  6.6026774783092410  6.7899687713314796 19.6161706212321008
  2.3745018706851697  3.3319596545356798 19.1693196404720219
  0.2491260409712401 10.2479798246131590 19.3669235876325416
  0.8698033332849201  0.6856851673936600 20.0484230062063631
 -1.2555752521959698  7.6017087954816391 20.2460198831633384
  5.0979839676950895  4.1437020301329799 20.4952689822244984
  2.9725947525309495 11.0597137626648401 20.6928689485935209
  3.6002146544913196  1.4266485691157000 21.5494921274532842
  1.4748454894611598  8.3426701223973811 21.7470831374163787
  7.8283940100355984  4.8846561643868798 21.9963335342834441
  5.7030199728922799 11.8006811756790597 22.1939378355517007
 -1.9891628892918094 12.5038570985021398 22.3638412311476813
  0.1362114789028803  5.5878540801567400 22.1662306309190456
  6.4897687361929295  2.1298430268750601 22.4154787195253036
  4.3643908118139194  9.0458465985021395 22.6130854159592012
  2.5896250090369501  1.0702235426167599 12.8520961667513802
  0.4642426493890905  7.9862363817119792 13.0496912608399995
  6.8178388818507702  4.5282475980179200 13.2989614840613406
  4.6924547160815999 11.4442659699299405 13.4965570653449216
  8.1319444521520392  0.0797259536021200 12.9680949522714215
  6.0065731472634294  6.9957493050492605 13.1656916225134015
  1.7783819238952199  3.5377379751267402 12.7188505970946988
 -0.3470040181349798 10.4537714239645396 12.9164434363123011
  5.1945801260984492  1.9306982769863601 14.1625816444616817
  3.0692061622020206  8.8467158189758592 14.3601805449818620
 -1.1589847219843998  5.3887202575812196 13.9133258598401621
 -3.2843637244108699 12.3047390444545002 14.1109244896466226
  2.1817799321988898 11.2429845845135006 14.6807285814983608
  4.3071531562531593  4.3269501674327602 14.4831294811814200
  0.0789907043527100  0.8689471367354400 14.0362551291035622
 -2.0463956275216697  7.7849549962955393 14.2338567765802413
 -0.5063523814465305 13.0820851428899800 15.4357201469131216
  1.6190278310914696  6.1660634512878802 15.2381204467658211
  7.9725852168076994  2.7080512914428398 15.4873718506095219
  5.8472036747657903  9.6240700783161195 15.6849679608109209
  2.8652961359523497  1.6417235434553801 15.4248810092134399
  0.7399170810567304  8.5577338927830393 15.6224819125468404
  7.0934657988117102  5.0997310004061402 15.8717419363351624
  4.9680862211775700 12.0157526920082400 16.0693396617831006
  6.4978466811158100  0.0780521381997000 16.3765306157050397
  4.3724669361614099  6.9940723082771799 16.5741255672957806
  0.1442939287523501  3.5360654046080997 16.1272792345637015
 -1.9810864502025296 10.4520848830834794 16.3248774714821216
  5.6175952460614500  2.5149393866724399 16.6706447364638208
  3.4922156901327996  9.4309606633132788 16.8682414348624441
 -0.7359574050016000  5.9729561110913396 16.4213891616843242
 -2.8613359443613700 12.8889768344504994 16.6189895968151227
  0.7647813109783894 11.2695534474279402 17.6620080901813807
  2.8901631315781495  4.3535320324666804 17.4644105257780424
  9.2437161136681993  0.8955211175054200 17.7136603563636648
  7.1183380599839996  7.8115426707870990 17.9112551506153004
 -0.0919358292454806 13.7049855650822803 17.9552861458167179
  2.0334442973739404  6.7889648417231196 17.7576851429450215
  8.3870002658609195  3.3309521285964001 18.0069340740242829
  6.2616212390188206 10.2469734052372399 18.2045321515376024
  3.5342114808960905 12.0855439197642784 18.9982687569764011
  5.6595918634644899  5.1695216748805004 18.8006683688662619
  1.4314192196284798  1.7115118664826001 18.3538229265708246
 -0.6939636365355095  8.6275321748804998 18.5514173441687582
  6.9047273753140095  0.6904162790393399 18.8972374137759580
  4.7793475227355398  7.6064378323210198 19.0948330979241234
  0.5511738017310801  4.1484263640780794 18.6479861594810608
 -1.5742053128363596 11.0644499921660593 18.8455823294783436
  4.1837114290035595  2.5847288162630200 19.5995156775836037
  2.0583316342901492  9.5007384739885801 19.7971208675162416
  8.4118876335407897  6.0427346133687401 20.0463641831103843
  6.2865054375996703 12.9587517403969805 20.2439645383254181
  1.1791838455111403 11.8924271737791791 20.1815315352593032
  3.3045606348079000  4.9764014708849000 19.9839320863788039
  9.6581183533578887  1.5183937372932998 20.2331800312077625
  7.5327378242713383  8.4344147372932987 20.4307779964030622
 -1.5089843989708096 13.7315403193138810 20.9366053705126021
  0.6163887454885404  6.8155020292613795 20.7390003626920034
  6.9699521854246793  3.3575049463421198 20.9882549168192796
  4.8445656780996194 10.2735175087965001 21.1858477081013810
  3.9571926552324395 12.6698007979782403 21.5063589518309826
  6.0825796246964492  5.7537746801226994 21.3087635131589010
  1.8544080842512798  2.2957626585980799 20.8619156829333647
 -0.2709817422801000  9.2117887764536199 21.0595136222800612
  5.2705248071258097  0.6887229604577000 22.3056497723140410
  3.1451426374070799  7.6047362145141806 22.5032553175438643
 -1.0830327766499699  4.1467409297603801 22.0564087211917617
 -3.2084098743892295 11.0627435331445199 22.2540090392941394
  4.4592455387877203  3.1562325517529799 22.1723790690516225
  2.3338699704674197 10.0722632341823797 22.3699835462721239
 -1.8943074496259900  6.6142483079289400 21.9231368679427625
 -4.0196849814506797 13.5302753940274201 22.1207326386075422
