Ba Bi  O 
 1.0000000000000000
    10.7345919999999992    0.0000000000000000    0.0000000000000000
     0.0000000000000000   18.9529819999999987    0.0000000000000000
     0.0000000000000000    0.0000000000000000   53.6729600000000033
 Ba  Bi  O  
  96  48  24
Cartesian
  2.6836609888563197  9.4040085423479400 14.7033783767552002
  8.0509313331814383  9.4040089214075788 14.7033783767552002
  0.0000006440755200  9.2312312631377385 11.9546191722496005
  5.3672968587673591  9.2312329689061201 11.9545826746368000
  2.6836608815103995  6.1121094487458194 12.4295937379327999
  8.0509328360243195  6.1121085010967198 12.4295937379327999
  0.0000009661132800  3.2186642025646597 14.7616248096767997
  5.3672965367295999  3.2186704570487197 14.7616199791103995
  0.0000000000000000  0.0472706324062000 11.8946627188224010
  5.3672967514214402  0.0472698742869200 11.8946584249856002
  2.6836490734592000  0.0322524789992200 14.7226700487680020
  8.0509436779622394  0.0322515313501200 14.7226700487680020
  0.0000009661132800 16.0242336028368975 14.7013468552191995
  5.3672962146918399 16.0242366353140184 14.7013436348416011
  2.6836474632703999 13.1890356085872380 12.4780733023232013
  8.0509452881510395 13.1890363667065191 12.4780738390528008
  2.6836483220377598  9.4034355937020795 20.0948223781888018
  8.0509435706163188  9.4034352146424389 20.0948239883776019
  0.0000003220377600  9.3963100305893583 17.4076174711296012
  5.3672958926540799  9.3963299312204587 17.4076072732671996
  2.6836584125542395  6.2901486443486796 17.4343831028224017
  8.0509333727539190  6.2901486443486796 17.4343825660928005
  0.0000002146918400  3.3597761661579999 20.1246892335104022
  5.3672958926540799  3.3597737022703398 20.1246801091072030
  0.0000000000000000 18.9268428053448794 17.4289159751168015
  5.3672961073459202 18.9268410995764960 17.4289138281984037
  2.6836485367295997 18.9098971336684976 20.1344153105920007
  8.0509435706163188 18.9098967546088588 20.1344158473216019
  0.0000000000000000 15.8563852361256199 20.1228439571456015
  5.3672958926540799 15.8563916801394988 20.1228493244415994
  2.6836597007052796 12.9223095347819594 17.5022310915584001
  8.0509330507161589 12.9223087766626801 17.5022321650176025
  2.6836435988172798  9.4180360233857794 25.4758806618624014
  8.0509481864908796  9.4180358338559582 25.4758822720512015
  0.0000001073459200  9.4182268799145188 22.7862626185216008
  5.3672957853081593  9.4182272589741594 22.7862722796544013
  2.6836467118489598  6.3267508327168995 22.7927586568704008
  8.0509446440755195  6.3267506431870792 22.7927591936000020
  0.0000009661132800  3.3866861785910598 25.4923067345408008
  5.3672938530815992  3.3866848518823196 25.4923051243520007
  0.0000010734592000 18.9050536991183975 22.8171009544192032
  5.3672948191948793 18.9050521828798388 22.8170988075008019
  2.6836477853081599 18.9002860764963003 25.5061366461440038
  8.0509436779622394 18.9002853183770192 25.5061371828736014
  0.0000000000000000 15.8226165185663987 25.5030794343424034
  5.3672952485785590 15.8226151918576576 25.5030815812608012
  2.6836448869683198 12.8793615089804980 22.8136057712640010
  8.0509476497612802 12.8793609403910398 22.8136063079936022
  2.6836466045030400  9.4285681954831801 30.8558628026880015
  8.0509453954969601  9.4285640258271393 30.8558628026880015
  0.0000006440755200  9.4237931811980999 28.1668346251776001
  5.3672953559244796  9.4237920440191782 28.1668356986367989
  2.6836474632703999  6.3461270348049599 28.1699159898112015
  8.0509441073459200  6.3461262766856787 28.1699127694336049
  0.0000047232204800  3.4028767634645596 30.8594057547775975
  5.3672904180121597  3.4028767634645596 30.8594062915072023
  0.0000067627929600 18.8945476821361602 28.1970793381376019
  5.3672888078233596 18.8945476821361602 28.1970798748671996
  2.6836485367295997 18.8947262192265981 30.8867188506624011
  8.0509433559244794 18.8947271668756969 30.8866963080192001
  0.0000023616102400 15.8032501720289780 30.8802104675328017
  5.3672935310438401 15.8032497929693392 30.8802104675328017
  2.6836461751193599 12.8631669439807794 28.1806827855872015
  8.0509447514214401 12.8631656172720383 28.1806843957760051
  2.6836476779622398  9.4503679153795801 36.2440214822400009
  8.0509443220377594  9.4503555959412804 36.2440289964544036
 -0.0000030056857600  9.4334110614438202 33.5385414690303989
  5.3672990056857595  9.4334118195630996 33.5385403955712036
  2.6836479999999998  6.3799052288551801 33.5501412691456053
  8.0509434632704000  6.3799054183849995 33.5501294610944072
 -0.0000057966796800  3.4458215672590797 36.1707251513344019
  5.3673007232204792  3.4458221358485397 36.1707256880640031
 -0.0000032203776000 18.8799195810987364 33.5781376218112015
  5.3672990056857595 18.8799197706285575 33.5781365483519991
  2.6836481073459200 18.8728069060137784 36.2653350146560030
  8.0509441073459200 18.8728323030096590 36.2653258902527966
 -0.0000104125542400 15.7666407815275988 36.2385951459840072
  5.3673065199001604 15.7666405919977777 36.2385956827136013
  2.6836472485785601 12.8362745578209783 33.5482766705152002
  8.0509436779622394 12.8362673556878182 33.5482852581888054
  2.6836486440755203  9.5237866503424407 41.7782774221824056
  8.0509447514214401  9.5237764157321596 41.7782860098560036
  0.0000026836480000  9.5087531450200391 38.9502368150016025
  5.3672933163519998  9.5087542821989590 38.9502368150016025
  2.6836483220377598  6.5477424133070796 38.9715777206272023
  8.0509438926540788  6.5477763391448596 38.9715798675456000
 -0.0000048305664000  3.7125720904111397 41.1948137024512064
  5.3673001864908789  3.7125726590006001 41.1948137024512064
 -0.0000262997504000 18.8805037120039785 38.9695488827391969
  5.3673220850585599 18.8805044701232596 38.9695483460096028
  2.6836471412326395 -0.2452930941105800 41.7182533408256049
  8.0509437853081600 -0.2452631483990200 41.7183885966848038
 -0.0000383224934400 15.5885801690550796 41.2433308379136037
  5.3673330343423995 15.5885824434129194 41.2433351317503991
  2.6836487514214400 12.6951811681499986 38.9113099640320073
  8.0509439999999994 12.6952025850196595 38.9113099640320073
  2.6836508983398399  2.5987377478703597 12.3739976757760015
  8.0509416383897587  2.5987366106914398 12.3739982125056009
  0.0000006440755200  6.8718865460813596 14.6787285331456019
  5.3672964293836793  6.8719066362422794 14.6787226291200028
  0.0000001073459200 11.9919303919803593 14.5488496310784008
  5.3672964293836793 11.9919474496641598 14.5488743206399995
  2.6836453163519995 16.4516121646775204 12.2041801874432014
  8.0509486158745602 16.4516127332669804 12.2041807241728009
  2.6836496101887994  2.5903648890122195 17.5917291421696014
  8.0509422824652788  2.5903652680718601 17.5917296788992026
 -0.0000003220377600  6.8646942684720003 20.0625880086016011
  5.3672961073459202  6.8646942684720003 20.0625906922496036
  0.0000003220377600 12.0502966686388202 20.0353146307072016
  5.3672957853081593 12.0503034917123397 20.0353157041664005
  2.6836443502387199 16.3499030716025402 17.4947158036992008
  8.0509476497612802 16.3499023134832591 17.4947163404287984
  2.6836500395724801  2.5805625962516396 22.8750317903360028
  8.0509417457356793  2.5805629753112798 22.8750323270656004
  0.0000000000000000  6.8638607163236403 25.4509978776064010
  5.3672957853081593  6.8638584419658004 25.4510005612543999
  0.0000001073459200 12.0530099775419401 25.4396830809088037
  5.3672956779622396 12.0530122518997782 25.4396820074496013
  2.6836473559244798 16.3380460860633399 22.8482114122240034
  8.0509444293836800 16.3380457070036975 22.8482108754944022
  2.6836474632703999  2.5765259901452797 28.2333230778368041
  8.0509437853081600  2.5765286435627597 28.2333241512960029
  0.0000003220377600  6.8615588766597391 30.8248044076544048
  5.3672955706163199  6.8615592557193796 30.8248049443840024
 -0.0000032203776000 12.0570556810796603 30.7979566563328042
  5.3672985763020797 12.0570562496691185 30.7979566563328042
  2.6836478926540797 16.3403579708076983 28.2220088178688009
  8.0509439999999994 16.3403556964498584 28.2220077444096020
  2.6836475706163196  2.5738183671367598 33.6376625446400013
  8.0509438926540788  2.5738240530313599 33.6376722057728017
  0.0000056893337600  6.8734257177495799 36.1782710327807990
  5.3672903106662400  6.8734262863390390 36.1782715695104002
 -0.0000125594726400 12.0668752210538592 36.0812195865088015
  5.3673079153971202 12.0668754105836786 36.0812195865088015
  2.6836477853081599 16.3411799616370388 33.6104052686336061
  8.0509443220377594 16.3411716223249606 33.6104100992000028
  2.6836477853081599  2.5154543648361396 39.1240625999872051
  8.0509441073459200  2.5154653575656996 39.1240003393536000
  0.0000111639756800  6.9751456140242993 41.4687384843776030
  5.3672862315212795  6.9751471302628598 41.4687379476480018
 -0.0000084803276800 12.0752404987191984 41.2989140185599979
  5.3673051244032006 12.0752414463683007 41.2989145552896062
  2.6836486440755203 16.3483798204391988 38.9942067772928027
  8.0509431412326400 16.3484097661507590 38.9942110711295982
  2.6836590566297600  8.6902581932099405 12.1188782888448010
  8.0509315478732795  8.6902561083819201 12.1188772153856004
  0.0000005367296000 18.6860267846423369 14.6974340964352006
  5.3672962146918399 18.6860180662706199 14.6974330229760000
  2.6836464971571199  8.9957216983355597 17.3741400357888018
  8.0509450734591983  8.9957222669250196 17.3741394990592006
 -0.0000001073459200 18.5387518798920574 20.1456576487936019
  5.3672958926540799 18.5387452463483591 20.1456549651455994
  2.6836469265407996  9.0272676101658185 22.7598243918848020
  8.0509452881510395  9.0272679892254590 22.7598238551552008
  0.0000002146918400 18.5151101196750787 25.5243704241152010
  5.3672952485785590 18.5151106882645387 25.5243704241152010
  2.6836474632703999  9.0386100222437200 28.1486378815488010
  8.0509443220377594  9.0386094536542583 28.1486389550079998
 -0.0000005367296000 18.5037586101658214 30.9131780097536044
  5.3672966440755197 18.5037584206360002 30.9131790832128033
  2.6836478926540797  9.0622730098005402 33.5273436793856021
  8.0509443220377594  9.0622654286077395 33.5273506568704036
  0.0000005367296000 18.4722250177738587 36.2988242580480005
  5.3672958926540799 18.4722248282440376 36.2988242580480005
  2.6836482146918397  9.2095554957436203 38.9755022874623975
  8.0509444293836800  9.2095424181860395 38.9755226831872008
 -0.0000319890841600 18.1667219009158600 41.5540371625984051
  5.3673267009331198 18.1667256915122586 41.5540366258688039
