Ba Cu  O 
 1.0000000000000000
    17.6074780000000004    0.0000000000000000   -5.6335610000000003
     2.8053849999999998    8.1377799999999993   -2.7108539999999999
     0.0000000000000000    0.0000000000000000   34.4369319999999988
 Ba  Cu  O  
  24  24  48
Cartesian
 15.0389706695366012  0.2032802795996000  7.3444400357140296
 15.6461705743220012  2.9007255152259996 10.3928284460124267
 16.5737982107789499  5.5761107754505996  7.4741516065800289
 12.9244032396203998  3.6398743761799994  7.4668379215961007
 14.0002989085599481  6.5704465829785992 10.5024314903899292
 11.9431577581516919  1.0275004347621999  9.9235613749365683
  7.3182695170556702  4.2013609331078001 11.7345195476178006
  8.3767262182706617  6.9971475780332000  8.9381990621373397
  6.4454340653940605  1.5578205963348000 14.7197388009545804
  4.8480445297470300  5.1640069232709997  8.8258005945027982
  5.6265243105503195  7.9140187184519997 11.8583654554758198
  3.7570778892216303  2.3519348716317996 11.5583164027702789
 14.7485016729980600  0.2118950962632000 13.2246808091110495
 15.8234353412204012  3.1412483449955997 16.2617377774419474
 16.8053064823986311  5.7529120209749989 13.8041204344850801
 13.1031863212030100  3.8813477800313994 13.3344800699197776
 13.7092504966906503  6.5777238741213999 16.3833102991049913
 12.1749604165049394  1.2047551987659999 16.2529148292595593
  7.3841742962825307  4.4291606693586001 17.8014438720449597
  8.3204103705455807  7.0059148966939988 14.7918580258708783
  6.2936015568170109  1.6170687615362000 20.5348529313338766
  4.6970349323483802  5.2237396118935990 14.6403699083504115
  5.5703682198431395  7.9225088643259989 17.7125299229749409
  3.8221167279545498  2.5806258575481995 17.6266109279561078
 10.5276499327111708  1.7343063401285999 13.3322343071518290
 11.3546220170751795  4.4191555129819990 10.3880670174672005
 12.3237532532891603  7.0415577220715990  7.7985577286233889
 17.4950631193770398  2.4081616418747998  7.5763613333602091
  1.8100809278118399  4.6717956599271995 10.2488885429898602
 19.1637796552066817  7.7890476447699992  7.6723418649335287
  2.9923511708591097  5.8778142490381988 11.8381027804336210
  1.2356547487909602  0.3300161122524000 11.7784076103714881
  2.2375160359612201  3.1098482325987997 14.6955746005774799
  8.9651833588818306  3.8285492123689999  8.9658276978695497
  9.9780286359083412  6.4174326380387994 11.9165386913350382
  8.1160904740519300  0.9873969666553999 11.8891711730959990
  9.3313464422184698  2.1103596641525999 19.1122721149755570
 11.2536783326262704  4.3720523334081998 16.1516740979219868
 12.3906319800943692  7.1302623722945988 13.3448958729481575
 17.3941115909289401  2.3610959774667997 13.3408813417257974
 18.2221968462090977  5.0498381828943995 10.3941060782227090
 19.2307119886755800  7.8756640592671996 13.2184917646651510
  3.0264618946293798  5.7951947051879991 17.4702082112411929
  1.1632346466839600  0.3630193673092000 17.4450071667827693
  2.1762587752315996  2.9537260625880002 20.3970271434475414
  8.9049353182534006  3.6732410644916000 14.6639545394210487
  9.9065223446236406  6.4512096332179993 17.5822798522484902
  8.1486084028019103  0.9042446423486000 17.5234029439437791
 15.7021104400631106  2.9197424491745996  7.7080342103480088
 16.4787765283395089  5.6909950708225994 10.2492275984088099
 14.5923792303517708  0.1654372426434000 10.3349573331010589
 17.2329960166728711  1.1253061340038000  6.2428319656597981
 18.0417028370724388  3.6866845142960001  8.9879122597442187
 18.7200867030641191  5.9356309787375992  5.7503774509062993
 12.8570008868470307  1.2203567064485998  7.6327973379375988
 13.1205607199568099  3.7572993678457998 10.3387733546481186
 14.0022512470515306  6.3299214746306003  7.6911588484660189
 10.7303974848195196  3.3105633211867995  8.9826675909929303
 11.7120284060521911  5.6594180430885999 11.7812252436567793
  9.9509751234302684  0.5530759985422000 11.9745518575452401
  7.2552387803723200  4.4722094441808000  9.0193741334627582
  8.1934665195198306  7.0579271106750001 11.8972304754989793
  6.2983881764018896  1.5325745173073997 12.0059354100552795
  8.7273698768616601  2.3383184940024000 13.2369833535689700
  9.6196227168440398  5.1401335249739999 10.5431585512689487
 10.6617390974918003  7.7328437416887992  7.9500111889735994
  4.7902793492319402  5.2044105940819989 11.7093067563511575
  5.7230061056345107  7.7243232418953998  9.0517676757042906
  3.9866466949321198  2.4565044494760002 14.7362899469454387
  3.3399330954839703  7.2772645322593998 13.3174095363246394
  1.7145785225390799  1.9580392208244000 13.3014909542513688
  2.9114463657776000  3.5599859526755999  9.4233313429302701
 15.6284434102159313  3.0237424637965997 13.3896430492878693
 15.8911971201832802  5.5605128483911992 16.0950220800834991
 14.7461746419226110  0.4489399202386000 16.0373843075892779
 17.0369018203331315  1.1216540610953998 11.9464762758545220
 18.0179798268151892  3.4695852263450000 14.7465778357183872
 18.7997051221792972  6.2301229144447987 11.7523644767744475
 12.2706046873836012  1.0923005189907999 13.4778562275136657
 13.0467801823770788  3.8608500956339999 16.0198415908858465
 14.1566819152382415  6.6161075851807993 13.3922494973385202
 10.7078001784130699  3.0958892544313996 14.7385278994706503
 11.5160034668054703  5.6546087778641994 17.4861500574201898
 10.0286257956405116  0.8459704880354000 17.9777327564814726
  7.1558068691995897  4.3258338118981996 14.6239823063008014
  8.2239904369823300  7.1936916474821997 17.5994475944793685
  6.3503708487217398  1.5759632885779999 17.6528273410308998
  8.2296253040394998  3.2222137223051996 19.9371794155696413
  9.4273233162142294  4.8238273748209997 16.0592110005984097
 10.6069218181638991  7.6422313517003992 13.3331047101311189
  4.8441281755035099  5.2491526781665998 17.3541147413432526
  5.7536100468515396  7.8621249091699994 14.7525799562857607
  3.8861449374677699  2.3094458946957999 20.3415912902045903
  3.2858190657639796  7.1857108452583995 18.7012805291834106
  1.5218072244319001  1.6406675911359998 18.8180592156957900
  2.4148246256271597  4.4452081273851993 16.1219936503028691
