Cs  Y  O 
 1.0000000000000000
    15.1899280000000001    0.0000000000000000    1.5321810000000000
     7.0098529999999997   13.4757520000000000   -9.2178950000000004
     0.0000000000000000    0.0000000000000000   46.1142869999999974
 Cs  Y   O  
  48  16  48
Cartesian
  8.5115830914848800  7.8143578799257600 12.2580381901064470
 13.7494843693713804  2.2494256183028800 21.1775049190131384
  9.9870321433888911  1.3843765354093600 19.8598129699407373
  4.8953083208302797  8.4520396280771202 11.4961821186009985
 12.3748956251299802 12.1821280511921604 10.7912661639700680
 16.3657487776341917  5.3628607999900000 19.4076185427128181
 10.6960100237372195  1.6081296734651200 15.9600574895319376
  6.3705834704416100  8.7451653983988002 15.2766209854542296
 11.5094059629473602 11.7910846369305595 14.5321085070308698
 15.9064204586586992  4.4880806070622405 15.3733526816659669
  8.5683866558856003 11.0498449688396807  9.5672415259937473
 12.7260320195859080  4.2815572959986401 18.2587907563591187
  6.1517847828286110  2.2477803637411999 20.4107897169428583
 16.1075044165802090  7.8154673385879203 13.0230152375762884
 12.4883607088423894  8.4533838343391192 12.2629601777851889
  2.3933038386683601  1.3835667774716800 19.0900086925739814
 19.9700029713946776 12.1842666530345589 11.5613412738975185
  8.7702988065593299  5.3649783796592798 18.6467212717887065
 13.9651343389075890  8.7490968142872791 16.0410037108071180
  3.1015841952846803  1.6089589712432000 15.1917250143162192
 19.1059037390116195 11.7865915516987201 15.2989463059406390
  8.3149928388188403  4.4896650859824003 14.6101405943065501
 16.1637427274352206 11.0497255736769606 10.3334392184690671
  5.1331345111703000  4.2823414500075199 17.4934199242085278
  9.4758495181248392  9.1939498495875203 20.1700227417760694
 13.6302842279470404  2.4252116823571201 28.8611644211002769
  9.8236032128871305  1.2938561360148000 27.6374874714753318
  5.8364186273215495  8.1118646172226399 19.0210949113377481
 12.2134133498865900 12.0911355962050404 18.5694058372976585
 17.3054591406436415  5.0232919284604796 26.9324408126678101
 10.6892577983148591  1.6855004340580801 23.8965987302591643
  6.2923137451661297  8.9896300934909608 23.0579658372641561
 11.5049514550668004 11.8683448963571205 22.4689172460170212
 15.8288507610522995  4.7306754068068795 23.1512111036488157
  8.4521528550654885 11.2269854807274392 17.2518088398215497
 13.6878423476559608  5.6608545509641601 26.1705661624620980
  6.0352754502343604  2.4254278334191999 28.0952832725729600
 17.0674802963483998  9.1929165289241599 20.9346607594278460
 13.4310028867930900  8.1090727109232805 19.7825831950825375
  2.2291629070599299  1.2920137312013600 26.8666832208091648
 19.8069452237308710 12.0914369140197611 19.3378889768240683
  9.7120418152968906  5.0220264205901604 26.1655458462427362
 13.8839274064085920  8.9846599666383202 23.8183137741244373
  3.0921879672790400  1.6896717183321601 23.1278766230369115
 19.1009162530547094 11.8666829318629592 23.2366154214134788
  8.2331223783468204  4.7258936709672001 22.3877591990646891
 16.0484117769898198 11.2283520567377604 18.0172637208843156
  6.0921814016944396  5.6592040408592004 25.4060502966595116
 10.3080264108387389  8.1546036384782390 16.3819823899028094
 14.4973968774751292  0.8630654521991199 17.8203814344476505
  7.6615235008853295 12.3572647187575200 12.8316324392575467
 11.9660995518732189  5.8743274420916798 14.7984610725653472
  6.9033481877868406  0.8627041672880000 17.0532995833381378
 17.9026714154824198  8.1541734924744009 17.1483141709065556
 15.2563147676169990 12.3583410270697591 13.5959974402973174
  4.3693725633151494  5.8734171550440797 14.0306884247525865
 10.2328207499968684  7.6009163873003995 23.6302711831111800
 14.5372875100938419  1.1193067417216001 25.5966606670531576
  7.7036868780491998 12.6139776595999997 20.6082519217489022
 11.8916858694206411  5.3211917534432001 22.0464945383515989
  6.9421879278600400  1.1183327143670398 24.8317234819838397
 17.8313075006610013  7.6018684491792001 24.3978327207323353
 15.2969974771593407 12.6123818610481599 21.3749534555106706
  4.2969860850268899  5.3211255875008803 21.2804047157495688
 10.4754114059822587  7.4269863385691197 14.2790598341749284
 14.4627402369117295  0.5988215873514400 23.4559676077843910
 12.5376786929034498  1.1868910069396001 18.3646336133931669
  8.4212159331053904  8.0379463442920809 17.3941642157016290
 11.1432653249226803 10.0536359874576000 16.7165396096588665
 15.4616785816276714  2.7015695744652000 17.7390757341767120
 11.1792892948511486  3.9365979889115996 14.7924148399383295
  6.7026780648699500 10.5866519740975189 12.0488567829532229
  9.5536627917508703 12.5652314176178397 11.8758297191672710
 13.8163425816842498  6.5958239206848797 13.9310983994016198
  7.1390057713264596 13.0809542412312005  8.4950365743744598
 11.8395597190053898  6.6819083720360801 16.8342582364955184
  6.8711610080646004  0.6032873168067200 22.6900767890999902
 18.0718178027909495  7.4295393197855200 15.0441293904528699
  4.9434264003703197  1.1861637206041600 17.5954415803914657
 16.0160809189764421  8.0381119612841587 18.1593397298924302
  7.8678199839047505  2.7012714908309601 16.9715717709162774
 18.7404328109338287 10.0518527411954395 17.4861574182292792
 14.2965374087036690 10.5891158805931997 12.8098171567355621
  3.5798623574618897  3.9370769171376798 14.0219093059813105
 17.1490132680259109 12.5654437954693599 12.6424387008885688
  6.2208464714721101  6.5936130888117601 13.1647757586137395
 14.7340777021772400 13.0813021851478393  9.2619404825644676
  4.2425531892754993  6.6786762129188801 16.0673281835487707
 10.3587392443475199  6.7938758350112005 21.5949895941740841
 15.0607101457725197  0.3955095479894400 29.9344015035716637
 12.6455218619497103  0.9119686866920800 26.5537309316131278
  8.3830715212704092  6.8781732668896796 24.4978995031615518
 11.0197394330362393  9.5389264056371204 23.6347350580671360
 15.4971756391035900  2.8897730049573598 26.3780672011416293
 11.0560353256914592  3.4231420562996804 21.7125979234504278
  6.7383032026849197 10.7751223592368000 20.6909787893763664
  9.6627296238732008 12.2905251136748799 20.0631703837014967
 13.7781373483102882  5.4389559458986403 21.0339270185374367
  7.7349337194087191 12.8771396910771188 14.9726837266115282
 11.7244420561665983  6.0488494806083200 24.1496519605245972
  7.4665592138068604  0.3937579697444800 29.1667308267753391
 17.9580684870638088  6.7974993299664801 22.3615217014403278
  5.0491781294581601  0.9122685221740799 25.7859242087696074
 15.9790854921276093  6.8810829512615195 25.2633778445773274
  7.9020922105504292  2.8876432971112798 25.6179882975521664
 18.6222164258227814  9.5384528677118396 24.4084213460625001
 14.3326246180442176 10.7744693242948806 21.4574430117348882
  3.4586047601331602  3.4242376349372803 20.9407688197601765
 17.2568661534538705 12.2875689379586390 20.8312877923950523
  6.1848639248569794  5.4365207427547197 20.2694136857938467
 15.3270816336577091 12.8735981286940007 15.7384543602559894
  4.1277392828175898  6.0444778119019995 23.3851144958584065
