Ce Sb  O 
 1.0000000000000000
     8.0054049999999997    0.0000000000000000   -0.4901790000000000
    -2.0524230000000001   11.4702509999999993   -2.3178329999999998
     0.0000000000000000    0.0000000000000000   26.3725640000000006
 Ce  Sb  O  
  16   8  16
Cartesian
  0.5721375139485898  2.7653854099844697  9.9176330195620501
  4.5760823517345397  2.7893926453274700  9.6250112514837198
 -0.9405098823064100  5.7334321468448692 15.7496862084865334
  3.0418820841879901  5.7350683781500198 15.5540370740869491
 -1.2237844610382500 11.3289220228411498 10.3520685599494104
  2.7066704282772802 11.3425439782262387 10.1223737316458795
 -1.0622549729575299  8.5389109015797597 13.4228158102735904
  2.8663146690824193  8.5487334510236082 13.0583555339148418
  2.8023154301487594  2.9479821708936296 12.8810734423142605
  6.7471308716662994  2.9320467805843498 12.6294269780227193
  2.5672383947680792  5.7545726223554396  9.8284947129304818
  6.5485105239082895  5.8755789529000202  9.6905266921164515
  2.9055733761498099  0.1424006427097800 15.5377636898375293
  6.9312757158086793  0.0216304846332900 15.3165913438372190
  2.4667347872648495  8.5551021931888496  7.4503713522634314
  6.4694617978543292  8.5524920228712897  7.0691924933084715
  0.9866347625663999  2.9614794446503496 15.8835382794448634
  4.9874406311553292  2.9637338077818902 15.6354513651205096
  0.7996361317173499  5.7359129327311500 13.0815370817979701
  4.8053575047672297  5.7384087446462395 12.8394224187112727
  0.4659793688897698 11.3399851946331598  7.3389151288090115
  4.4646966147186298 11.3288657039087397  7.0942750910493899
  0.6131953959426202  8.5866873645575090 10.1620496755012013
  4.6223764923847401  8.6217107436634208  9.9018927306066615
  0.6841298335372999  2.1754076587814999 12.1252928897208605
  4.6528882176125599  2.1358075348240799 11.8423130959349603
  0.4765312644163200  4.9950615791072099  9.5329311863263406
  4.4849743370665589  4.9909944575076297  9.2803791663809001
 -1.1896790086022002 10.7467609035871501 12.6675794231682222
  2.8548577451531001 10.7844573099860987 12.4859618305349809
 -1.0343734011627603  7.7148858903920701 15.3867533733730220
  2.9592553649924298  7.6857924016481398 15.1269737146302710
  2.8042113304450500  0.7004297302899000 13.4158666279977705
  6.7951969789204094  0.7142155955617799 13.1558641203981708
  2.6349047786638597  3.6463701965055297 10.6511253918048396
  6.6245478377182785  3.5910034096310399 10.3993793915278001
  0.9050729917567002  9.4730118970265984 13.9094797344471424
  4.8609928856393898  9.4797182086787704 13.6263714620772518
  2.3854402018978798  6.5991753785396394  7.7340121122193999
  6.3881701297866798  6.6012004513536899  7.4904200036725390
