Na Zn  O 
 1.0000000000000000
     9.8631480000000007    0.0000000000000000   -0.6647770000000000
    -2.4625300000000001    9.5507919999999995    0.6647770000000000
     0.0000000000000000    0.0000000000000000   34.7641259999999974
 Na  Zn  O  
  32  16  32
Cartesian
  3.1816778548815803  2.8145298665581602 11.8926937117834690
  6.8815641172054010  7.5907119922476802 11.8927521362328896
  4.3316288731131802  6.1320503791458396 14.1268630444841978
  0.6314359279735999  1.3564812232868799 14.1270891803324510
  4.4719012236918001  6.1545120272793596 17.2389770359780492
  0.7715505135192802  1.3791481179404799 17.2392158334320413
  2.9940542244937403  3.5460576895467995 14.6137534105376368
  6.6946551486631609  8.3213080399688000 14.6137497676952393
  3.1349171710237997  0.1439126709668800 13.6508616026991785
  6.8353420271834207  4.9192759117503195 13.6503549560907409
  7.3191084095936798  0.9013678379820800 11.6722287058273775
  1.1565411096219997  5.6765321357681593 12.3373198047682884
  4.2062488111388401  9.3589559379830387 15.3659015726192294
  0.5056948020719401  4.5836074054192801 15.3658833676832991
  0.0130428045818198  8.6895016729479195 17.2767782058766102
  6.1759972013337006  3.9139549614501599 16.6118972561459870
  2.9287446527944403  3.3963183669044801 17.5249512824526406
  6.6290637714500793  8.1715959370836799 17.5250546175856456
  4.4063360321667000  6.0045801606703195 20.1503593778794787
  0.7063514442627000  1.2292227458700000 20.1504862322499783
  4.2193188465023805  6.7357007378880791 22.8713305125439277
  0.5188689600777801  1.9609085389583201 22.8716878961269678
  3.0690021382879600  3.4189352154080002 20.6370556087633474
  6.7692773615031001  8.1942720960055198 20.6372028929121676
  3.1946488588786806  0.1918373991278400 19.3983516567597185
  6.8947785959683614  4.9672328260803189 19.3981999701332697
  7.3874108730250807  0.8613557499772800 17.4874637975099070
  1.2247118433510400  5.6364984629734396 18.1520105934297575
  4.2657059811332809  9.4069477127038397 21.1136597608105490
  0.5653309941954601  4.6316167535973598 21.1133449940898714
  0.0811860244152802  8.6498421046758391 23.0916972336116366
  6.2442329488321402  3.8742563304388002 22.4271389618868859
  4.4677406696256403  1.1218885576760000 16.2101462096261777
  8.1679851209891599  5.8973011760540794 16.2100495692364497
  1.8648790484458599  7.0084513007448797 15.6396052846275690
  8.0278336375005406  2.2331792700250399 14.9747602212471893
  2.9184542402223004  8.6101418500298390 12.9750946729216885
 -0.7817349853197000  3.8344171117691994 12.9750659549263982
  5.5811327628623602  2.4653465120075198 13.3727829493535975
 -0.5816560056993603  7.2406800498278399 14.0371677674262578
  4.4820797975315001  0.9411498474076000 21.7889292415904983
  8.1824758372935609  5.7158877023308801 21.7890513511071084
  1.8195268184465798  7.0855416644679199 21.3915844481884569
  7.9824508261570815  2.3097471099177596 20.7266748730585491
  2.9329766122763807  8.4288584580936785 18.5538953112531999
 -0.7675025129563799  3.6535037175151195 18.5540142678357078
  5.5356052840093213  2.5423488174283202 19.1246229687744780
 -0.6271510784416601  7.3176266741312794 19.7891998072497337
 -1.5206608502253400  8.8879952100364008 13.7730749176487866
  4.6420331125066401  4.1126724646110402 13.1082371237565685
  4.7997636964740202  8.2495686984795995 13.0554091744985286
  1.0994317587486000  3.4735046205791997 13.0554425764061310
  8.7910793449884004  0.5164218293112000 15.4504906516407896
  2.6280975481039395  5.2918085650429605 16.1151937060634012
  2.6162009564735200  1.5070481220559999 15.7431808990590589
  6.3163738248377204  6.2823849071455999 15.7431831577147481
  5.9845970769564607  2.0181745147427996 15.3029853387986687
 -0.1783369335622000  6.7935595313319999 15.9676159020210786
  2.4339832651094202  8.6273500850237603 16.5920386764381647
  8.5967003025291806  3.8519401408674399 15.9272517864119596
  1.5716497105495002  7.4150468537055190 13.6558511996190592
  7.7342070426256813  2.6396477019441602 12.9909776025576083
  4.8938137276238400  0.9527121317107200 12.2640220354415774
 -1.2685884339325599  5.7278177876339198 12.9284377277170179
 -1.3903056353295198  9.0344284305199984 19.3137982404264363
  4.7723053681683210  4.2590035871281602 18.6487663743329080
  4.7845020259531399  8.0435604072296787 19.0209586453512074
  1.0841181098000399  3.2683650693695996 19.0209025604423694
  8.9213069388312203  0.6627341367680799 20.9911401278153811
  2.7584804922553201  5.4382822808846392 21.6558814677587570
  2.6007299268632402  1.3018671204091199 21.7086795705528175
  6.3012237483334612  6.0767161465512798 21.7087758654618490
  5.8289900462204205  2.1359147683603998 21.1082752398759794
 -0.3339307464978800  6.9110140252529595 21.7731249935453164
  2.5064268855227798  8.5983745102224809 22.5002720252151498
  8.6696615330096396  3.8227243636473598 21.8354199736457275
  1.4160986734464205  7.5325573152675993 19.4611851198348802
  7.5788677211910409  2.7570229242915198 18.7963691046455175
  4.9668041161555205  0.9233159400297599 18.1719984092313958
 -1.1962706960890799  5.6990469818131197 18.8368578183977675
