Si  O 
 1.0000000000000000
     8.7317809999999998    0.0000000000000000    0.0000000000000000
    -2.8099240000000001    8.2673050000000003    0.0000000000000000
     0.0000000000000000    0.0000000000000000   35.5929069999999967
 Si  O  
  24  48
Cartesian
  5.0803990761631601  0.8269070896348001 13.7567703172279803
 -0.6910152891298401  4.9605520663872502 13.7559862054867690
  2.2470147740765900  5.9914567257041504 14.1336700161742392
  8.0173867368929912  1.8592170254556000 14.1351748842821987
  3.5747592390843002  2.3849344543672997 11.5998380174535587
 -2.1980923965212602  6.5194765990583505 11.6017336956803785
  0.6162046707467399  1.3041075911348501 11.5190915927042887
  3.5761989701478392  5.4374766879194505 11.5169414251924191
  5.0242049760925109  0.8395615227061001 18.8803062804325883
 -0.7448182291048403  4.9721707714881509 18.8803336869709781
  2.1944736107926204  5.9955297788584998 19.2818690164972892
  7.9651817346056193  1.8599498393708001 19.2824417063709177
  3.8365984546647702  2.1944392952303504 16.3100129077811076
 -1.9334056416977901  6.3277567213586998 16.3101905163870384
  0.8979558118605699  1.1730489811996501 16.7122440786392694
  3.8594050169389398  5.3069978640839004 16.7118938444343890
  4.8114106640608405  1.0626387095594001 24.0737139675107592
 -0.9605251525649602  5.1975537923790007 24.0760737772448579
  1.9288584100418196  6.1808249684965508 23.9916128767210708
  7.6996905804067897  2.0494994668349000 23.9926251389961465
  3.8571961608990795  2.1448210801196499 21.4575505918920975
 -1.9127187088257203  6.2778626262801502 21.4591843063233974
  0.9281019485495700  1.1238151957714502 21.8376600591916201
  3.8890913139231289  5.2583357627964507 21.8361455809987675
  4.3236403955411804  1.8147107330455501 14.8019133197945791
 -1.4455006369799701  5.9489974180121008 14.8021005384853996
  2.3329039248256898  5.8598011336749005 10.7198279509843886
 -0.6265745858246200  1.7258442315048002 10.7222237095545605
  6.6867937935053403  0.9656170076744501 13.8190650230593786
  0.9153920540390998  5.0994766036646997 13.8164411139553387
  2.1063463206007498  2.0632050050638999 11.1799968999280797
  5.0653191683491796  6.1986219132970000 11.1796406149290100
 -1.6033849539578100  7.9538426903505002 11.4038243193138591
  4.1670071438199399  3.8198766941449001 11.3978795919867189
  4.5019536201778498  1.2937523782571001 12.2739295916230677
 -1.2717964434410001  5.4262496050564000 12.2735619168937582
  3.5021440692433199  5.5694270093719505 13.1954968685182283
  0.5414104240668198  1.4394714828218500 13.1975196134230401
  1.8298716013767096  7.5632500626652011 14.0007422541885482
 -1.1326864790782500  3.4302168664827501 14.0009326762409998
  4.2554097179971393  1.8411313863645502 19.9008894653110460
 -1.5116867621194201  5.9731788717718501 19.9031773773730087
  2.6647930198956007  5.7105103053309998 15.6892156610499089
 -0.2967452059993900  1.5792110110262001 15.6908981377637993
  6.6416099769386800  0.9650893055963001 18.9994894854511571
  0.8727448822392196  5.0985715817863504 18.9965249522271300
  2.2200788762963599  2.0669435630579502 16.4030808850756387
  5.1817100288540487  6.2009264245657505 16.4028612768394488
 -1.5115878736677901  7.8685995005720999 16.5936940714362287
  4.2586375960459195  3.7348082751942000 16.5951594314174180
  4.5755432366040694  1.2004864303606000 17.3586749810627978
 -1.1967843283824502  5.3338062540074009 17.3601104430021103
  3.3734662419276793  5.6181824485328500 18.2332165533004904
  0.4116807423783100  1.4795865135080999 18.2341814770092583
  1.7937017734039991  7.5669600157839509 19.1894271184368890
 -1.1641792525623300  3.4320307131997501 19.1896303539358577
  4.0128885357979298  2.1014069813731502 24.8748408979121081
 -1.7584941418631299  6.2387131341448496 24.8729662195004195
  2.7103245875638899  5.6566349241836003 20.7902494325200493
 -0.2499415057385301  1.5199765974317001 20.7901583146781270
  6.5330307785038197  1.0250232158668502 24.1905281086394055
  0.7617577389471397  5.1572329884713000 24.1935001163739081
  2.2353473890196103  2.0343669090898500 21.5927883335420887
  5.1966952265941693  6.1685459537453005 21.5925164037326098
 -1.4957324989486600  7.8253908443548506 21.7762380914398577
  4.2741878175369896  3.6926746993191499 21.7721954490627994
  4.6601640667715394  1.0921861403024502 22.3952112016873066
 -1.1121049628716602  5.2232785039631002 22.3969673557186866
  3.2618673894790393  5.6536519151935005 23.3203943620045990
  0.3016063841676401  1.5245033602844500 23.3212044565679157
  1.7602192253594700  7.6746193416854505 24.4105588326354983
 -1.2032598204600400  3.5424494174911003 24.4159419038901788
