Rb Lu  O 
 1.0000000000000000
    13.7297980000000006    0.0000000000000000   -0.8996630000000000
     9.8387729999999998    6.1873189999999996   -0.8996630000000000
     0.0000000000000000    0.0000000000000000   39.5914700000000011
 Rb  Lu  O  
  24   8  22
Cartesian
  4.9413395459590497  1.5794238658869100 18.2856242558947493
 16.8309412642840428  2.6583731935961601 14.5527697579175612
 15.5103280673417991  3.8736668396481195 17.7111081691551995
  2.6370952913086501  0.8663087456652099 12.4069560948485993
 12.7887511906042892  4.8082866807328299 15.3734696370435096
 12.8069528146627505  2.6098524236177298 12.0864527457875486
 10.4060682072539912  3.5141165970833499 17.7665156412548626
 10.6757979012228912  1.1362285570981299 14.6950317313500598
 11.1799452807075212 -0.1441392884384800 18.1964458130374815
  8.2308341430022303  2.3925831082297897 12.1484397315228190
  7.0053084719468304  3.2835490007150896 15.6554384874638721
 18.8111455934970380  4.3601529632841993 11.5896956096041599
  4.7568844625690199  1.8284895042498999 26.2018900637255818
 16.5633896693345619  2.9044123048702999 22.1374736285828888
 15.3362373609984495  3.7977405776229900 25.6414180361143522
  2.5492571191291300  0.1445362049523300 20.4965260723796234
 12.8912318300312201  5.0520527566259394 23.0955337289858811
 13.1629972641681618  2.6739782308460600 20.0258375649151894
 10.7607770800310298  3.5755152197160496 25.7048563925170690
 10.7795776097822920  1.3787943549784298 22.4187384430644059
 11.0913903592110401 -0.8731561897293199 26.2867124554926619
  8.0579847172567103  2.3135686934185697 20.0800335425483887
  6.7381584466668496  3.5285019900119701 23.2386630559105996
 18.6257206683355712  4.6073379041639502 19.5074850007325260
  5.8671966661362909  0.0042500075479100 14.1632876322651100
 14.0941133537236603  1.0648513357481799 16.1051005117569375
  9.5007677846091791  5.1546880041979390 13.8796720995512217
 17.7519061064434922  5.9744470740985500 15.6297654683358083
  5.8166137863339102  0.2121628591440500 22.1630006164530897
 14.0674231401348617  1.0329565725278398 23.9116416744930902
  9.4737147234617609  5.1220888765826400 21.6874494525471420
 17.7023004078962920  6.1835386099641898 23.6296002322051066
  5.0149332670586997  1.7581477307345998 13.6858250540853490
 15.6328364875054397  5.8005584753029797 15.3341837427127103
  2.2422721528281100  1.0447711962851500 17.8703314774316411
 14.2970201809690511  0.9482628794797099 13.9496539559594517
 12.9300010898668596  2.5165609558335800 17.0134911134785405
 10.5937834098459618  3.4914662453077199 13.3415348022308411
  9.2378059752566699  5.3651368522326095 16.0084456013412293
 21.3407373906111495  4.9159705331160692 12.2460922707136000
  8.5708688188088598  1.4379998823915798 17.5401336406355384
  7.9353357930857795  0.1425302142593400 14.3889632936010212
 18.5905289194975794  4.2610322366505802 16.4311539967552207
  4.9783851366855796  1.9251500291027399 21.3628189453214219
 15.6349110717597899  6.0429718795163092 23.4043434054555597
 15.0003179796646293  4.7487647956992101 20.2510786787366683
  2.2282349319300701  1.2741901787542500 25.5432715400988286
 14.3290932445981305  0.8225448484071699 21.7833285902801208
 12.9743581704870703  2.6971493073887296 24.4488181286802302
 10.6386215365465908  3.6711595392963297 20.7785696126340120
  9.2724833142584000  5.2391376075115197 23.8435107853793014
 21.3252671344868787  5.1412383813948797 19.9229531694707198
  7.9370913402991912  0.3884849923755099 22.4589219145543595
 18.5568338956641092  4.4305888459214895 24.1071557002592911
