Sb  O 
 1.0000000000000000
     7.4317789999999997    0.0000000000000000   -7.3991550000000004
     7.4317789999999997   10.3553130000000007    0.1779840000000000
     0.0000000000000000    0.0000000000000000   59.1932400000000030
 Sb  O  
  27  52
Cartesian
  3.9081029511578800  0.1630558975824300 22.2810437608194896
  7.6680748657920699  5.2167347588806203 21.9242652991457128
  7.4590730258731899 10.2197554289828112 25.8761960341102828
  5.7630734288842902  2.4837490575231902 23.8108167734131193
  2.1530340140033899  2.8000044586683899 27.4790098569064227
  9.1104949544753389  7.5778054588241099 23.6829138878868299
  7.4700751058225805  0.2730863794170600 21.5001094380082804
  3.6558546231067304  0.0161224974690900 25.5986697351106187
 10.9847842673944598  5.1172614150963600 22.1911473495031792
  5.5915641708425099  2.6606354075952900 27.3669792202303235
 12.8019392524462194  7.5895475553410705 23.6492861789117121
  9.3207125591208300  7.7680432246065010 27.6063494816095556
  3.8914970125713295  0.0556290520953900 29.4853969545001213
  7.4223729689086504  5.1869756603812212 29.3171106828854136
  7.4425406618987395 10.3177721944404901 33.2272067733209724
  5.6009837277716397  2.6363208220118999 31.1578736801319067
  2.1185833335887798  2.6530957041999899 35.0155802739848667
  9.1869358551000602  7.6724876063895309 31.3639832027190941
  7.6791630800600696 10.0517838643192814 37.2664756944204925
 11.2075023472713191 10.3186891574066397 33.2132879271673218
  3.7962103094872504  5.2130804724760509 36.5602482073149062
  5.7330348470264001  2.7920809873733101 35.1058969696011332
 12.6193983359746298  7.5172968796899902 31.2657029884642270
  9.1882978772373889  7.6796115439678809 35.0540012045112945
 11.0552424372885998 10.1828415340723204 36.4917105253227589
  7.1129755237499293  5.0576128447068900 36.9984053008876259
  7.4294571636048197  0.2531919591877200 32.8941111872502603
  6.9122258569148602  1.1475562151184300 19.7128869053565907
  5.5048682326934797  1.4505836358842998 22.0718085560607022
  8.0841878267344391  5.8588217404209004 23.7303532438017015
  9.6829325626066893  6.3372523197778809 21.3977002957251941
  1.8023286602645499  0.7392936508619700 25.5052658654421585
  4.0133634732489103  1.4444599179886202 24.0769875895055101
  6.1842786447974598  4.0159740846526208 22.7510876505441608
  9.2110446948116387  3.8632904827835102 21.9389688068799273
 10.8817080937871111  9.2694578818607702 24.1271210891205605
  7.8340482659745394  9.1491577254646508 27.5401143806980535
 12.6400926448246587  8.9824190643668995 22.1939236604406034
  5.4960335567716498  3.4073097042448803 25.5323688013113888
  3.9970377870484501  3.8859947136422703 27.9607352197731593
 10.8994844632483705  6.5602229192938806 23.7241333210371899
  8.9501609368336492  7.8476757886827606 25.6527273584406359
  1.8660404098180696  1.2793057233330001 28.7083606476580506
  7.3004292920472595  1.4061325228536301 24.2353505811465908
  3.9524195411483598  1.5136194291560703 26.9595213343172126
  5.4233700064592600  6.0042535165961102 29.4725546246172314
  7.8884728929007091  6.4419175068409498 27.9007582811487005
 10.7552126009237998  9.1897713666037806 27.3138204927119403
 12.9709155372514289  9.8066560015771795 25.6358736261033933
  4.0696176555292993  3.8668513642648201 31.0144233980763637
  7.0076799979798103  3.8766173564019906 27.9009584608147208
  9.4578296991665205  8.4918555789803403 29.5320048269044264
  7.8114846417526396  9.0426926814490507 31.7358554596327558
  6.9926258148484592  1.2891621173526602 27.0994974535000850
  5.3147045405015891  1.8178882448443801 29.2463430561525932
  7.7082083303368192  6.5184581815616705 30.7574455633877122
 10.8033489766846991  6.4752077670733508 27.7386037338673503
  1.9040663704739997  0.5834902002922200 33.1353009898266606
  4.1574615805804598  1.1214608263584300 31.4236599140637942
  6.9965830885303797  3.9286795209345300 30.7548569882292959
  9.3722084705786788  4.3398356703025804 29.2378656250955409
 10.8568678183863501  8.8840556030299815 31.7921081097603917
  7.7223498166891797  8.9505972910710305 34.6677761711547916
 12.9441827593283190  9.1164256166029496 30.0924277829416518
  5.9357375853826699  2.5449395340183600 33.1029959394159334
  3.9381567681627203  3.8007805323058803 34.9906088535884408
 10.8083544284767790  6.4432639046372104 30.7964920080225326
  9.3287746272978183  6.9109493970128701 33.1709280494783130
  2.1827120802619899  1.2789216447738301 36.5339699254481403
  7.0707420614131502  1.2561133430194200 31.1869013676119131
  3.9219840279740796  1.2119366457832501 34.6116365207449519
  5.5802615497503600  6.4352446466968809 36.8953838946392452
  8.4417721837512598  6.4281464938479003 36.3917671539485994
 10.9261535508254504  8.9991589455970509 34.7304204894417055
 13.0966098843385392  9.7191319641230116 33.2821147357335363
  5.0426171527277299  3.9356402587800003 37.3462408302247511
  6.7978067076553899  4.4799703932188999 35.1374139979807509
  9.5083203881968288  8.9145423693738906 36.8403420853801293
  8.0737943351673600  9.2974477751341205 39.1173303825867578
