Rb Sn  O 
 1.0000000000000000
    10.8075019999999995    0.0000000000000000   -6.2397140000000002
     0.0000000000000000   15.3609010000000001    0.0000000000000000
     0.0000000000000000    0.0000000000000000   37.4382840000000030
 Rb  Sn  O  
  24  24  36
Cartesian
  3.6148042151435198  2.3745638058219303 11.3361097292892801
  9.0186141160294184  2.3745871543914499  8.2164182689017018
 10.8074750893200200  0.0294362481953100 11.7266225419649786
  5.4037019339409200  0.0294268780457000 14.8464949540585636
  5.6008002932652801  7.7612823260241806 15.0838435662818835
  0.1970718809444600  7.7613019879774603 18.2037406876428989
  1.7833272080415401  4.8320626522329606 14.7077268969527015
  7.1870442724852603  4.8320784739609906 11.5878119924067811
  1.7176714172415000 12.6980307474442196 14.9317367477639422
  7.1213835102342999 12.6980344340604603 11.8118445557769807
  3.3263220499829798  9.9754265591697404 11.7742883411823804
  8.7301050401888993  9.9754511366113405  8.6544020145265819
  3.5038872544176001  2.4793259186869800 17.6918972602086022
  8.9076100468373784  2.4793495744745200 14.5720644079017845
 10.6365207257837788  0.2648841448890500 18.1966271640943447
  5.2327995544892998  0.2649085687216400 21.3164407356849033
  5.7556141929396194  7.8663129474387095 21.2860975056800221
  0.3517919715014400  7.8662868339070098 24.4060210834284028
  1.9203492575483800  5.4079614174131700 21.1858113247406621
  7.3240639443416597  5.4079557338797999 18.0658543645223801
  1.6945200187571798 12.9037027664215405 21.1306984268642637
  7.0982514571785602 12.9036923210088617 18.0108014302975228
  3.6112466016351599 10.2104597115364815 17.9810114133358816
  9.0149647468290794 10.2104521846949901 14.8612415197433201
 10.7494666869351789  3.5641781847452401 11.4425962516333009
  5.3457116881594393  3.5641766486551401 14.5624536884132816
  1.7725947101054198  1.4091258016565800 14.6046312223877006
  7.1763146925746790  1.4091268769196501 11.4848123470402399
  1.9140999275919000  8.4459757477999595 14.9975921868512998
  7.3178419573652400  8.4459837354684790 11.8777639519328417
  3.9167686309740399  6.2426787685045602 12.2044607760420796
  9.3205203874991795  6.2426882922631792  9.0845973491366614
  3.2629748496851603 13.7809046830626905 11.9407378910950008
  8.6667344956867609 13.7809221944898290  8.8208347172114010
 10.7163439628805985 11.8440173397346502 11.7036937769148821
  5.3126031219324794 11.8440188758247498 14.8235479066464393
 10.5595425635884599  3.9980889223589799 17.4714790511728992
  5.1557678951590802  3.9981345442349498 20.5912875685951207
  1.7348632348979600  1.7954888671419500 20.9285508491862409
  7.1385991043951593  1.7954796506013500 17.8086924764491599
  2.0047616842194600  8.8310541811347001 21.2471686787997029
  7.4085202494708602  8.8310392810607290 18.1272702470987426
  3.8276868230638601  6.6763170037345603 18.1733892212155403
  9.2314680840694585  6.6763107057651503 15.0535113805707788
  3.5853847897242601 13.7570319996005708 18.0717702373657794
  8.9891365462493997 13.7570553481700895 14.9519038153976389
 10.4606252804081610 11.8206276029999700 18.1687525521392814
  5.0569047575637995 11.8206391236757202 21.2885990694197602
  0.8707351465853199  2.6022393938276900 13.3250458967366008
  6.2744245438239199  2.6022487639773000 10.2052255862549224
  3.6423945789242995  2.4583441567930602 14.8162265382245408
  9.0461361763975603  2.4583613610021802 11.6963584939307612
  0.9492201987844999  2.3013752569173302 16.4054709617164605
  6.3529930299385393  2.3013572846631600 13.2856593868343822
  2.7738631900718000  7.2623879111659804 16.4527384799892396
  8.1775826321659597  7.2623578038000201 13.3328933354458421
  0.0250490877605000  7.5320394652893903 15.0172489082769403
  5.4287888479584199  7.5320672685202004 11.8973718163978628
  2.8056349763763802  7.4722937016769198 13.3555020031677412
  8.2093899751521207  7.4722778799488898 10.2356767633120000
  4.7271168601343598 13.1207820976994807 13.2592551010862820
 10.1308645098087400 13.1207490717623294 10.1393708335361019
  0.9047583517065400  2.9789318504794999 19.4559870183887043
  6.3085077305812396  2.9789415278471303 16.3361126095866425
  3.6027708181916598  2.7693649214446201 20.9778456505376205
  9.0065179274909397  2.7693361965597498 17.8579897736861426
  0.7725479101651199  2.7089908969812497 22.5540139421797221
  6.1762957759895389  2.7090014960029398 19.4341677368849410
  2.6619383217093597  7.6374875959931003 22.6676941683972011
  8.0657645419232811  7.6374730031371501 19.5477694051031605
  0.0335383805815000  7.9390672436720413 21.0596802484133008
  5.4373046191593195  7.9390024206698211 17.9397766377497199
  2.7560781486305599  7.7822868220515806 19.5215164324195598
  8.1597853782474594  7.7822796024281100 16.4015982208252211
  4.6476855030600595 12.4811037963042004 19.3613869640232608
 10.0514353142348405 12.4811314459259997 16.2415284040947583
  1.7952551237738801 12.7012765058255201 18.1264739971951983
  7.1989966131721195 12.7012835718399799 15.0066501924736784
  4.3698655870726402 12.8994155389524412 16.3465811025587229
  9.7735969174190007 12.8994631577455401 13.2266935279601210
  2.0449699146602600 12.2907338460760496 12.1684511993566602
  7.4487158351343199 12.2907604204347791  9.0485113983518808
  4.2515910951351596 13.3108964425349914 22.2294008081636392
  9.6552955148015389 13.3108915270466692 19.1095538541031829
