Ca Ge  O 
 1.0000000000000000
     8.2145849999999996    0.0000000000000000    0.0000000000000000
    -2.7381950000000002    7.7447850000000003    0.0000000000000000
     0.0000000000000000    0.0000000000000000   33.5359040000000022
 Ca  Ge  O  
  24   8   8
Cartesian
  0.0331508887537995  5.7850966485552000 15.7775475493753614
  5.5095876845063501  1.9127743937551500 15.7775428543488001
  0.0781876522177500 -0.0552940474032000 12.3672083633446412
  2.8163926466294997  3.8171175822157504 12.3672117169350404
  2.9082751347021998  0.8478388848205500 13.7694263371904011
  5.6464699977924493  4.7202327014340000 13.7694387454748810
  2.9320305918622500  6.6396207543399006 14.3323962405107217
  0.1938020763554499  2.7672575296272002 14.3324572758560009
  0.0782125697922496  5.7532878871859996 22.5101123458310433
  5.5546014745142491  1.8808815240208501 22.5101193883708817
  0.0331604176724000 -0.0234716552124000 19.0997865741619215
  2.7713747219471503  3.8489556963200999 19.0997805376991998
  2.5846629277246995  6.8852521868601002 17.6883136968892813
 -0.1535670937893502  3.0128783517919500 17.6882576919296000
  2.9320580833400500  0.8310148883650500 20.5450019366031995
  5.6702341350306495  4.7034126548188500 20.5449841625740781
  2.5845948835789501  1.0767074272389001 17.1890794498390420
  5.3228123641598994  4.9490855993866498 17.1890717365811199
  2.9082547899133493  6.6564270926856004 21.1078957134214420
  0.1700626376361497  2.7840462873109502 21.1079014145251200
  2.3496714161719998  7.0514187175748999 11.1735038969273610
 -0.3885409987482000  3.1790394611572501 11.1734961836694406
  2.3496869417376494  1.2428088243118500 23.7038191597616006
  5.0878831739253991  5.1152134061764505 23.7038235194291218
  0.1145617250699495  5.7275915424823500 12.5563203442320006
  5.5909504655002493  1.8551886644704501 12.5563116248969600
  0.0733189772160500 -0.0518452171948500 15.7240547642640003
  2.8115152641676997  3.8205489866578501 15.7240654957532815
  0.0733210034803498  5.7567433779094497 19.1532625913212797
  5.5497027888953507  1.8843515749401001 19.1532609145260828
  0.1145892439297000 -0.0810267151485000 22.3210332301296006
  2.8527904048684496  3.7913541676740001 22.3210379251561619
  4.1259746294640500 -0.0132097376395500 15.7855747033568008
 -1.3504057868534500  3.8591740107534003 15.7855723558435219
  1.2293455035899998  2.0350204810785000 12.3835966889113607
  3.9675268673788993  5.9074201837285498 12.3836104386320009
  3.9675137240429001  0.0988314337285500 22.4937179838016021
 -1.5088697042890999  3.9712271865382496 22.4937250263414441
  1.3877742352198996  1.9229857378819502 19.0917446643827198
  4.1259614861280500  5.7953866796976001 19.0917382925609616
