Zn  O 
 1.0000000000000000
     9.2609040000000000    0.0000000000000000    0.0000000000000000
    -2.3152260000000000    5.1690319999999996   -0.2871680000000000
     0.0000000000000000    0.0000000000000000   37.3318980000000025
 Zn  O  
  22  24
Cartesian
  2.0859898245885602  4.7242396910579192 13.7266212747951819
  6.7160751159424201  4.7248179506677594 13.7254001283597216
  0.0199118002336200  2.7746089609611997 14.5008222434885017
  4.6506616077540004  2.7743720642246394 14.5015831623148816
  2.3038910702446795  0.8433983865383999 15.7507457552358012
  6.9341510222479794  0.8440785794592800 15.7505750652417991
  2.3341952948812805  3.9554371560211194 16.6496410788012028
  6.9639929425568994  3.9563621542975196 16.6496818998756630
  0.0025106310743999  1.9444945214499201 17.7558033068842001
  4.6324098940191600  1.9448167589048000 17.7560306754009396
  0.0148515959835001  5.0966254920019995 18.6408894413574409
  4.6440393436739402  5.0984643234456790 18.6415559479929414
  2.3186469316330802  3.0812032192286396 19.8162312742684215
  6.9478348413893398  3.0815153770711197 19.8153511920301213
  0.0197600603215800  1.0695511350154401 20.9194609237596403
  4.6490955657353403  1.0702241429818400 20.9227557797015216
 -0.0107812434574197  4.1805718119554394 21.8195312715984038
  4.6196445481842607  4.1837534545320798 21.8200511271677193
  2.3351068688142602  2.2523109456434400 23.0736217844134792
  6.9666027579131393  2.2494156674396000 23.0699184081916613
 -0.2275658324614800  0.3004114240212800 23.8421194210126650
  4.3998108528427196  0.3009185060604800 23.8460973358062418
  1.2269254719634202  3.2306295445943194 13.0505288858506390
  5.8568289949240206  3.2306286141685594 13.0506569859510222
  3.5566651838644798  1.2097399866745600 14.2982847505320230
  8.1865441885817400  1.2101161371331999 14.2976049453169605
 -1.1194023480301800  4.3813735082013601 15.0378032600745009
  3.5115134380421398  4.3811144363175192 15.0385411451179021
  1.1553649155539998  2.4063562146236799 16.1903618583894833
  5.7857729031077412  2.4066641338599197 16.1908554521563595
  3.4738917795667201  0.3610118112409600 17.3488830066173030
  8.1036593756088600  0.3615496490205600 17.3498088233756995
 -1.1544673718905800  3.5182220793975199 18.2261511413967412
  3.4765738994309401  3.5190588422976798 18.2260699359757616
  1.1625357724347603  1.5074488340049599 19.3444450388519407
  5.7913378034736001  1.5078533624492798 19.3464881390006020
  1.1597128636774801  4.6647407211767993 20.2210474913350815
  5.7894049601997599  4.6651375994537592 20.2208335566203239
 -1.1589745149538200  2.6187539621874398 21.3801699041849638
  3.4714986462118200  2.6203535708301597 21.3818893943148005
  1.1977951132133400  0.6442183707018400 22.5293579232101600
  5.8251721458014396  0.6439263720841599 22.5343321947038646
  1.2405408298719598  3.8150262944376001 23.2746303464297988
  5.8706324417928002  3.8167673277958394 23.2731810878395038
  3.5350517388253802  1.7900777024495198 24.5237305496379214
  8.1699726575073601  1.7919747888838400 24.5203970668901796
