Ba  O 
 1.0000000000000000
    10.9345130000000008    0.0000000000000000    0.0000000000000000
     8.2008840000000003   15.0629530000000003    5.9286110000000001
     0.0000000000000000    0.0000000000000000   26.5948780000000014
 Ba  O  
  28  50
Cartesian
 11.0549915519919200 12.9716192331793199 16.5460584395913024
 16.3780464079713006 12.8283923914311693 16.5554766206124313
  8.0855948613442301  6.9760498405934301 12.3730966232528701
 13.7474411868245809  6.4762702484547603 12.6008466369397212
  8.1861667185188800 10.6917802916696711 18.0956796250956309
 13.7227966384309106 10.6198447495456918 18.0685109722877115
  5.5062616898528098  4.2892624787297500 14.0193284240454314
 10.9459122162715019  4.1148970486514100 13.9914764581485702
  5.5251918950409999  8.2614503993276198 19.7988354484382221
 10.9813680881024922  8.4531302419908716 19.5647667835044103
  8.6657312246011209 15.0489482194482509 23.8196196467773333
 13.3238305477940493 14.8305501626421901 23.6237115207909518
  2.8561420234442401  2.3818957201182003 16.0327226344951406
  8.2137364016811318  2.3865399297871601 15.8944870231589821
 10.8866730914347301 13.0299435897134401 20.7477389854070005
 16.3581025368922717 12.8841070913580413 20.6598847667830618
  8.1627632877209599  6.6864594477644106 17.1827794797898505
 13.6590182631099992  6.4809680822363998 17.1546747046696204
  7.8219048171742909 10.7933806628023206 13.4873400964276620
 14.1003593404704013 10.9787117720351297 13.5252386961578512
  5.3375734873783003  4.1740661355897695 18.5861567373172107
 11.1623760818015114  3.9329722756100201 18.6909900120449421
  5.4464494852689302  8.3017041830362306 15.0975831444830515
 10.9815260999399129  8.2899568872505913 15.3061557831306914
 10.8787582694013611  0.0840173860957500 13.2469145554244303
  5.3678968941858303  0.1961634812532300 13.2212977754934311
  2.5721665716081801  2.3530250099916898 11.4771915727359293
  8.0983973573018400  2.3275061081667401 11.6744376696983601
 10.7086265030321393 14.5812527171995807 18.5809575372658209
 16.2524270263121835 14.5942892511324906 18.6623616185368704
  8.3302063061018998  8.2295887892534303 14.8476483017414314
 13.7502238237663921  8.2290267904770005 14.8290128117378188
  8.2126391929084210 12.5179843950380310 20.2305268104227522
 13.6458562798373499 12.5328313452920099 20.2202741211802888
  5.3691324851161504  5.8678976105122498 16.4901716188244514
 10.8270636494086396  5.8741869959078699 16.4826601424748276
  2.9015760454690001  4.0345360437668800 17.9466250497844015
  8.2100848312012413  3.8300204563342102 18.2555864433062318
 10.8489048210534111 11.3379455774301210 18.5190872222618417
 16.3941572620338114 11.2359425735637810 18.6113590618116191
  2.6187897101812401  4.7904799803618001 14.6842421453503018
  8.0531717875545112  4.8034583712961298 14.8107436803001313
  5.6485375599453196  2.5343504281332097 16.5653811262108732
 10.9654833242302523  2.5240317028100900 16.5386622842193312
  5.3240033847322508  6.7043712570652998 13.0568911819201610
 10.8645292565291012  6.9356445235776407 12.9663058701870000
  8.3641272588648388 13.4008683554498500 16.8679777372101682
 13.7951228862071904 13.4945548017058314 16.9202950616082504
  8.1750476616762704  8.4274031701554613 19.1618398646903429
 13.5387137880898702  8.3424371192797686 19.0840041387652484
  8.2904240974791303 12.4221831101808498 15.8188712728297922
 13.7587474777329000 12.4257909886834099 15.8216415156925692
 10.9549249608175998  5.7711533847972705 12.0029056467818709
 10.9834728958210199 10.1810311040087509 17.4970684380734305
  5.5570367649188706 10.1702275022285598 17.5112675208135222
  5.4759428812174296  1.5649126309699701 15.4661317988649891
 10.8639487867028706  1.6704555794208400 15.3726804536886021
  2.8203315083754203  3.7275730953543702 13.5975674421734709
  8.2518856433666610  3.8200317603113199 13.6554638279290401
  2.7012274870513204  0.4834468322007700 13.8194580247139491
  8.1703288850663700  0.4905684457496400 13.8233875717407191
  8.4956080927489808  9.3077151313425297 15.9183383983927111
 13.7918507500990799  9.3118515688658601 15.8005682175808619
  8.0911264211216292 13.3967727385291493 21.4790835125307886
 13.5587763995969723 13.3962699371580101 21.4786832284740292
  5.3809096734985706  6.8225773288442104 17.6880211617971703
 10.9056170016242007  6.9284938385294801 17.5948128536831625
  5.6360327695461203  2.5207646989339199 12.0613656442553214
 10.9844886119683309  2.3092785793709698 12.1106336426196517
  8.1099107515811504  4.9087002113165301 19.1944874887872885
  5.3384899943607902  6.8500961389389703 21.9934431576159319
  2.8204588686919099  3.7159982703805801  9.3936578777764410
  2.8216630345628504  0.3691203745965400 17.7236785111552599
 16.3732090787529927 10.2843766688759803 13.4705226588856597
 10.7697812257652394  1.6643989166490700 19.5892737570189936
  8.2328268423010407  9.3017819847853591 11.6079015500737199
 13.5598719556739109 13.3986159920877608 25.6872415645952223
 13.6205739417577014 12.4224012217402908 11.4788291414509303
