Rb Ta  O 
 1.0000000000000000
    10.9655009999999997    0.0000000000000000    0.0000000000000000
     6.2566490000000003    5.4278570000000004    0.0000000000000000
     0.0000000000000000    0.0000000000000000   35.9287199999999984
 Rb  Ta  O  
  12   4  24
Cartesian
  1.8966177424571800  1.3385599609915302 14.1073914286296009
  8.6111509084410685  2.7139763736987401 13.7838177355968003
  4.3604369110365502  4.0893376936574004 14.1072200486351989
  3.1285404313427403  2.7139801731986402 17.4076883166383993
 10.1562142171563501  4.2656065355538502 17.3188951558920010
  7.0658604778107401  1.1622160518327700 17.3191283332847981
  1.3734548061467000  1.4036948420558000 21.0049720041672003
  8.6112055400284095  2.7140719039819401 20.9159754868655980
  4.8829362793228297  4.0244747482288297 21.0054254246135983
  3.1280447003890903  2.7138780209299003 24.5399793634584000
 10.1451010781622202  3.7408047913162403 24.2165152530216012
  7.0766290541221597  1.6863604283091103 24.2170265187072005
  5.4828522244846702 -0.0001067659471900 14.2209107344800003
  0.0000474284241300 -0.0000788124836400 17.3050769701800000
  5.4828489772381497 -0.0001768395810600 21.0186321035111980
 -0.0000391139935400 -0.0002281871082800 24.1036944014879992
 10.4763102825148700  4.5269041143195503 13.1983581653352005
  6.7458521149762305  0.9011309736686202 13.1984670293567987
  4.4832033400384397  1.1980098919835602 15.3132828666264000
 12.7393081930780596  4.2293648972005604 15.3127913617367994
  9.8390225465726093  0.9275384207093100 15.8221664780904003
  7.3828090999557103  4.5002603383850808 15.8220849198959996
  6.1890887268347203  3.6877368505415200 16.2728286766559975
 11.0329597725728981  1.7402242557557401 16.2726105893255983
  1.6961323882919102  0.5481095592598800 18.2880644735735984
 15.5261106191890796  4.8798994750146907 18.2883475918871987
  7.4759014013224601  4.6227114896193999 18.7614867976847997
  9.7464294287088400  0.8054312870516501 18.7615852423775991
  4.8580140330733199  1.3206743037194100 19.5620311352159959
 12.3643759941679292  4.1075598780635199 19.5621798801167976
  6.2651442302974303  1.6018457637763301 20.0364684456672002
 10.9574329955467604  3.8264873678397100 20.0360965834152012
  7.2146645827973099 -0.1789455352974300 22.0511753718263996
  3.7504626998798098  0.1789258321765200 22.0508168032007994
  4.7235246992602100  1.2458365312033699 22.5014366058767976
 12.4983059116714799  4.1821541569145406 22.5013819942223989
  9.9223149526921190  1.1599585518279001 23.0106051320903973
  7.3015143513268512  4.2668709005634309 23.0125891160087974
  5.1841820210731893  4.3063304982177399 25.1247961689191968
 12.0361051173782982  1.1221783874079601 25.1253106681895986
