Ba Bi  O 
 1.0000000000000000
    18.9529819999999987    0.0000000000000000    0.0000000000000000
     0.0000000000000000   11.3857540000000004    3.7952509999999999
     0.0000000000000000    0.0000000000000000   53.1335199999999972
 Ba  Bi  O  
  96  48  24
Cartesian
  9.5408746589136388  5.6603712416176997 16.1375786228199516
  9.6257988015996006  2.3316904972381800 12.8212277053314700
  9.5476602055292794  9.4497743583139595 20.2776724880041392
  9.5635359813717589  9.4974403620048005 16.4441630256127986
  9.5124954113159390  5.7048517390544209 20.0904642997022300
  9.5378527954635590  1.8971645815821800 16.5385720506538689
 12.6275127679259409  7.3089654575980800 14.5274130458499187
 12.5932982762300778  3.8394846080982004 18.3712082997484991
 12.7186546258868187  0.0973411375325200 14.7344649288991789
 15.5889453930182196  7.6305045018624593 18.2625925016090918
 15.5363328626353194  3.8156409036440202 14.9994495093490290
 15.5969431723625771 -0.0007239062393200 18.4019348757686210
  0.0144601776169000  9.2853146563816011 16.1944556044299972
  0.0312254169046400  5.7275090479418003 20.0283916333970993
  0.0338471829047000  1.8826838380723598 16.6422995746105400
  0.0445482260717200  5.6825198350163602 15.9428383885465408
  0.0334163816238400  2.0601496006564601 12.8297432729928911
  0.0348014655484000  9.5338750025198795 20.1229049400674178
  3.0675759578359796  7.6129198879546998 18.2214078000586497
  3.1565249557794601  3.7607711333973799 14.8198584415294690
  3.0741262979449995 -0.0336533285279600 18.4334870033796570
  6.0621313828609198  7.0599732498105805 14.7453591258068695
  6.0877029357051393  3.7570450315433397 18.4091427137880075
  5.8632821920816989 -0.0021251509841000 14.9226100817704506
  9.5370552539810003  5.6973412402858594 23.9626504847453887
  9.5364064934071386  1.9040235875068601 20.2867694204204909
  9.5287853098151185  9.4898092881013802 27.8412508052878707
  9.5342612053745590  9.4860418559603197 24.0600423764316815
  9.5263777125116587  5.6953841430308003 27.7814385066973983
  9.5281208182661992  1.9014878662335200 24.0629071658902767
 12.6385909754347594  7.5925325568423006 22.0963960956212517
 12.6094105852879199  3.8052684817500202 25.9193457912000298
 12.6229938084276796  0.0036755491062800 22.1485175179550176
 15.5701102985662576  7.5846014683209804 25.9203429651124679
 15.5764568941187793  3.8196925242049202 22.1352896327021789
 15.5657039197810789  0.0046601891122000 25.9345968105518985
  0.0246330011755800  9.4596532077720603 24.0099948902190903
  0.0544251935813800  5.6846964496085404 27.7915636686234109
  0.0575003149108800  1.9075655817187200 24.0905513975420753
  0.0436360190480600  5.7047460792573004 23.9476102066753462
  0.0346007534690200  1.9002180130899000 20.3419531353854453
  0.0557139963573800  9.4853630373068398 27.8211055729198584
  3.1191419045528397  7.5798695489585803 25.9261219946408694
  3.1070345501214200  3.8277277923753403 22.1203282578856104
  3.1344691810962400  0.0007331287000600 25.9478054621990850
  6.0726193945102596  7.5794725277165993 22.1624175688664984
  6.0882502978252999  3.8007848856823605 25.9338933316671429
  6.0737690823983801 11.3793409740595006 25.9628540407662456
  9.5339843023075392  5.6828718825300406 31.5732613815042598
  9.5309154354620986  1.9058297096638801 27.8721330895834143
  9.5009992905540184  9.5166410698353197 35.4488916885341752
  9.5321911606805187  9.4908926425944813 31.6378451835365198
  9.5110024849238002  5.6902926615570806 35.3218611997112149
  9.5200138697455188  1.8857665309678602 31.7160464357243868
 12.6109522208437994  7.5897822141060605 29.7159025679048909
 12.5834633843404600  3.7628246679888204 33.5434442155862271
 12.5956366951492384  0.0106260964931200 29.7376118811260781
 15.5501795322248775  7.5969108346854597 33.4960975506455938
 15.5646944839597587  3.7897131507776800 29.7298020222977151
 15.5490605481675974  0.0110202712966000 33.5012367204780972
  0.0523106093796400  9.4864621041404593 31.6176972185868905
  0.0599137876387600  5.6865832967614205 35.3768362897015294
  0.0605164924663600  1.8931615781908600 31.7010315858392921
  0.0516425167641400  5.6890439859158999 31.6008201820428489
  0.0498942937044600  1.8951154874348000 27.8822451578929993
  0.0577391224840800  9.4902049430528805 35.3988305014657243
  3.1464874565122596  7.5868293188061608 33.5151546090708337
  3.1329209119966599  3.7852300101401806 29.7443353685244709
  3.1621824209064595 -0.0020026402710600 33.5672323101072081
  6.0892335785314602  7.5858664255903800 29.7290915981017712
  6.1000166881105393  3.7708262343274002 33.5284232553234958
  6.0936325656536594  0.0059125081946600 29.7433630155557900
  9.5101729129016590  5.7080578535232798 39.0211321611809225
  9.5077313897604192  1.8628946006175802 35.6354003097201684
  9.4909492823186987  9.6910227732334402 43.2642923337869547
  9.5111224572998587  9.4425388255045011 39.3361734506885483
  9.5098527970356788  5.5304979307536000 42.8339795965392014
  9.5212511204104811  1.9080013145243000 39.7206648877426503
 12.5505570274622400  7.6240633531095794 37.2302682776085661
 12.6331582926742794  3.8294941782509002 40.8438066263377451
 12.5437360387702590 -0.0224166140478200 37.4424253215328733
 15.3398736428862996  7.5926196578604008 40.7410293681409996
 15.5640212740391188  3.8334748655643804 37.2545902131651658
 15.5381574662124606  0.5305880914417000 40.9183010082223433
  0.0712287178927600  9.5265513439744591 39.1810662277522823
  0.1495843256069800  5.2587821489904405 42.8421940489588593
  0.0645621960040800  1.9300794301057000 39.5261020055711469
  0.0614815783098000  5.6933507612239405 39.1251933636517109
  0.0360404219817400  1.8855949476550800 35.5729913082318205
  0.0873717307814400  9.4788980923280999 43.0146309490039513
  3.2421619201184395  7.4932845332298612 40.9291475747221867
  3.1169463911179598  3.7510245864007605 37.2925221223391432
  3.1517054019866797  0.2816074971232800 41.1363210955817138
  6.1204864772599992  7.5912371996097203 37.2617118989773815
  6.0597228379083603  3.7744398449319205 40.6643400048194792
  6.1126314138700995 -0.0399012610354600 37.4012851003254099
 16.1731354315620592  7.3324868313565199 14.8265288030447788
 16.3389118582810973  3.7335958434652601 18.5031540528524907
 16.4533909020382190  0.1742122833786000 14.5704492643635000
 12.0551543179254192  7.7090377400774592 18.3091145388543879
 12.1431387986149186  3.7309340818951400 14.6026558997753089
 12.0849417720857204 11.3791508319677011 22.1300817698137458
  6.9250979906954591  7.7310511845761409 18.2318892932924115
  6.8502958775764196  3.5262839207757199 14.6757727545879817
  6.8900863365766796 11.3517086599618207 22.2079070448309288
  2.7952092870576801  7.4084802494267397 14.6631318024775101
  2.6238271368524999  3.7706316517915401 18.4148134261511096
  2.4803646244315196  0.0617482458106600 14.4411895707245908
 16.3702473920111586  7.6004587494894000 22.1301292388329003
 16.3743366874074781  3.7943082133770001 25.9496909141723009
 16.3681892876957811 11.3655592019877396 25.9824188660194082
 12.0903158901318175  7.5974200056043397 25.8942739139023068
 12.0784865759463376  3.8252265699366204 22.0987740383515288
 12.0906291829242782  0.0120618400725200 25.9199816006419752
  6.8986456927776993  7.5889235005393800 25.9083530825416659
  6.9017932144984400  3.8216918626073202 22.1033289094865779
  6.8995891722216589  0.0120843838654400 25.9239342790989582
  2.6056271568273597  7.5972155174624998 22.0859117133735481
  2.6153646303895002  3.7926728775299803 25.9461979545815673
  2.6108310770950998 11.3745895850577607 25.9727173301202399
 16.3760629250080392  7.5784428001248410 29.7397224392052557
 16.3782402435801977  3.7688051491348600 33.5603469748384882
 16.3751012507013591  0.0015962827108000 29.7553080762069939
 12.0873105157760783  7.6016640454078406 33.4862513399229584
 12.0918687079470786  3.7978323319550804 29.7174981963858187
 12.0821848713239994 11.3790425534471602 37.3730451534375376
  6.8917013201728992  7.6107296104577209 33.4764685476893789
  6.8978443606987394  3.7962079264319000 29.7139653107496500
  6.8937171593384203 11.3758463445842803 37.3287269399560202
  2.6141336342085997  7.5784536165911405 29.7436855546041095
  2.6019144571833799  3.7653053960703402 33.5648651458909058
  2.6137996826657601 11.3788602675256207 33.5645952446474283
 16.3665102430203966  7.6245757120395803 37.2510771857419698
 16.3267425275985403  4.0640799915021999 40.9879044580800951
 16.4015520323805610 11.2451895799874393 41.2270347066419518
 11.9568095686852605  7.5286924064492196 41.2225493527288336
 12.1003560428164985  3.8198715082578003 37.2490100934542951
 12.2717772361645991  0.1821547576539200 41.0006820012792801
  6.9770829878443399  7.4161199765032002 41.0933906127820023
  6.8624424646805791  3.8569494438738801 37.1606059342424189
  6.6962752274726993  0.2581751599611200 40.8372339545792755
  2.6083330740674997  7.5971125902463399 37.3287642377029059
  2.6665990894511800  3.8594291472375399 41.0610805947201030
  2.5786638865148799 11.2672058709246201 41.1498778894631272
 10.2076345007193989  7.7455950051631195 14.9077936219438794
  9.9078259968331182  3.7768919947709003 18.3241423644209505
 10.1205842125126804  0.3224587854725000 14.1442145523517482
  0.3289985600539400  7.6754622901068608 18.1940217188260895
  0.5062938511132999  3.5181904714023604 14.6209599879455379
  0.4316403293731400 11.3372224512900814 22.2106918111119214
  9.8713233116203991  7.6418804641140197 22.0585402824844294
  9.9121410222450592  3.8140704665948002 25.8992846611049963
  9.9256196249241793  0.0063335533775800 22.1264556833481656
  0.4421008591985800  7.5743647646146606 25.9476546574481901
  0.4184767252548600  3.8049752985845200 22.1412050639427811
  0.4367233296157200 -0.0027173240496400 25.9584674242147386
  9.9132190678612204  7.5932636361066406 29.7051807927255567
  9.8949419491993389  3.7855596277184800 33.5225185266913215
  9.9185928068476805  0.0161791564340000 29.7159800104445999
  0.4491064499352400  7.5841626613618205 33.5371710524709314
  0.4356538128414600  3.7764627518450999 29.7643528152742505
  0.3947621855870000 11.3344206449457605 37.4003406033914345
  9.9081097229736592  7.6389110594708205 37.2482596664468275
  9.9826652577968797  4.0720312328080999 41.0429652444087480
  9.8054880438153784 11.3006934228743408 41.2650455518529071
  0.6439650903543599  7.2680620224955410 41.5196908308263133
  0.4312370099161800  3.8135913540664803 37.3395029301781207
  0.7311605584031999 11.2305005910369609 44.5509762528354401
