Sr Ge  O 
 1.0000000000000000
    14.4092660000000006    0.0000000000000000    0.0000000000000000
     0.0000000000000000   17.6303640000000001    0.0134710000000000
     0.0000000000000000    0.0000000000000000   37.4097659999999976
 Sr  Ge  O  
  72  24  20
Cartesian
  5.5120309900054805 16.1543158993174778 24.4965617953410693
 12.7169178812723995 16.1544153345704409 24.4971555643039309
  5.5588912198714198  4.3520077514172000 20.4650535669211564
 12.7634461216497019  4.3519698461346001 20.4656360080151281
  5.6219353609379201 10.2482573225580005 16.2017576443567179
 12.8264421357677598 10.2475963602116398 16.2015525079089109
  2.0197727518988002 13.2590855555162399 21.2258744399193375
  9.2242318320581802 13.2590774455488010 21.2262163589839190
  1.9564816360130599  1.5244594934937601 16.9487992440522994
  9.1608963356331596  1.5243166875453600 16.9493318500050378
  1.9097989283042398  7.3529744402720407 12.9315509642845079
  9.1144420147904412  7.3524936602457602 12.9316366393921385
  5.1882883565752600  7.7190862264887601 18.9364991784926069
 12.3930511840619193  7.7193300544228807 18.9365016093824963
  5.0994151739257800 13.5783107991040808 14.7386936818622800
 12.3038255507660814 13.5781704614066392 14.7385334608346383
  5.1786046093599607  1.8257260957039201 23.0232916731710198
 12.3832644105947196  1.8263172418088400 23.0240062772865883
  1.4971047258175001  9.9291197018792392 22.6888247436760082
  8.7019009828012805  9.9290031651731994 22.6893521323333012
  1.5857617694769799 15.7879784444415598 18.4912718575405890
  8.7903378528762808 15.7880209336187995 18.4918263027378202
  1.5765806174597601  4.0509394908020395 14.3908280209827684
  8.7811395538325208  4.0509340253891999 14.3904423221192985
  5.6265948852843408 13.6260522380833216 20.9526991687238677
 12.8306280275407598 13.6257842565505207 20.9519137329763296
  5.6028929395482807  1.8717034404613200 16.7691561380758110
 12.8077113868017012  1.8718109856817200 16.7692691977422292
  5.6957644053274405  7.7242686719865601 12.7890094133807786
 12.9001619579210001  7.7237461079976004 12.7877670098691389
  2.0931293164561802 15.7828113373604406 24.6398150933827473
  9.2977751407029210 15.7824315793198799 24.6399517229609692
  2.0005343644915601  4.0047960680157599 20.6446540504163387
  9.2051979121354819  4.0046380999543203 20.6449711645318565
  2.0242685869834598  9.8814776981529597 16.4749947845933988
  9.2287449582620411  9.8809285123143606 16.4751978740987894
  5.1991970354932207 10.3840853491904390 22.4999380650780907
 12.4036162019857805 10.3842935637892797 22.4992857978515559
  5.2002258570856208 16.1494448060479208 18.2550083407513419
 12.4046298938488810 16.1492945953466389 18.2556007966718603
  5.3111923350149208  4.3150858905211207 14.0422316663866198
 12.5157334038978405  4.3152655439302805 14.0423982771148097
  1.5979105098269000  7.3579710617332799 19.1722104213803597
  8.8027574874269998  7.3579287488596794 19.1728504701462192
  1.5970612276888601 13.1227254444982808 14.9275346211376885
  8.8016705964926203 13.1227942029178806 14.9276491475585491
  1.7083765539480200  1.5611888308149600 23.3716296017296976
  8.9131555198126016  1.5611560383379199 23.3715050021528583
  3.4517186327716400 10.7547492953919601 13.0693460923136087
 10.6560088363335002 10.7537397807493189 13.0701522496167701
  3.5290674285669801 16.5546831301789190 21.4594333828483066
 10.7338707460911014 16.5542173359620399 21.4597895420144695
  3.5588619001531603  4.7914733116105204 17.3875917616352709
 10.7636892811515015  4.7917968287899200 17.3879866818594202
  7.0536913276848798 12.7530357522113995 24.3580600007308270
 14.2583081893069608 12.7527365649343203 24.3569191483626213
  7.1609962670309200  1.0850399485504800 20.0263497456429178
 14.3656880568362002  1.0849752451146000 20.0268756775143082
  7.1313468967533602  6.9521951878039197 15.9685301710913201
 14.3364019441544990  6.9522205755280799 15.9684228244611397
  0.0539586665755200 10.6477990997769592 19.4693013284013183
  7.2576727876827007 10.6473698004135588 19.4696792131167271
  0.1108892442635400 16.6597028009359214 15.2227179266036980
  7.3152742607956807 16.6595180347211986 15.2225778729027788
  0.1246581624825000  5.0646513941995197 23.6876290280627586
  7.3286892874416791  5.0647212104409602 23.6878165043355793
  3.6556928881364601 12.8597860194986406 17.9574024305741595
 10.8597790564917602 12.8596858790311206 17.9575916474748389
  3.7258356100051997  0.8121723366715200 13.7265315635708394
 10.9308395045120417  0.8124554803173599 13.7272231123907780
  3.7129094897545798  6.8477938139123999 22.2050018139919167
 10.9178442197846213  6.8476328486890798 22.2050963377096657
  0.1894840092899000 16.1344168600779589 21.9266460539521084
  7.3943798343017404 16.1348944666387197 21.9261817895877762
  0.1797171206097800  4.3997620605621597 17.7728255403628594
  7.3846097755831002  4.3996414688724004 17.7733024227377214
  0.2837072083125200 10.2068636961369599 13.6451025794450373
  7.4889278181800005 10.2065627458234811 13.6459751193358478
  3.8866167937010800 13.3012256515490410 23.7818249011040592
 11.0912108886828804 13.3013439512914804 23.7817763587986697
  3.7820772806857601  1.4769758104362001 19.6407412926805485
 10.9869687829178009  1.4769625876632000 19.6424456715162599
  3.7921065620997401  7.3726520421397206 15.5018473678955893
 10.9969189574614390  7.3729365962146804 15.5014914443452092
  3.4036477363763802 10.2869318179393208 19.8749582197737880
 10.6081105629449208 10.2875194379714401 19.8744992768357385
  3.3448789686247404 15.9734992387407608 15.6900917715907884
 10.5497319981165596 15.9737596392170413 15.6903961119550370
  3.4132025206609802  4.2310523472478803 23.5802874683489279
 10.6168986301856609  4.2310754430247197 23.5807891509579974
  6.9471663619074207  7.5332609558032804 21.7372914666224766
 14.1519046936418800  7.5332066542821599 21.7372195983810776
  7.0060246112009201 13.2204530204012407 17.5528153054787275
 14.2102845553041810 13.2212217042716400 17.5529019352761289
  7.0157010096905603  1.6467488110033202 13.8337148786114081
 14.2205430881402197  1.6465476485500801 13.8341408221420394
 14.4066698825447794 11.7374502700316388 21.9213482218696711
  7.2025314085539005 11.7378238574448002 21.9227884092135028
  0.0030946780588200 17.6035801273148387 17.6650641919451274
  7.2074766686450999 17.6035381670485194 17.6651314974629479
  0.0173271423650000  6.0248815884029998 13.6540425665710892
  7.2218843496258405  6.0251100779204396 13.6545735857347896
  3.5996187972194802 11.7699363313453187 15.5057942019775297
 10.8042846503459593 11.7691907432517588 15.5064748641277994
  3.6194334111740605 17.4819226820510423 23.7734761286725984
 10.8241499849168612 17.4824588214202805 23.7754577595330687
  3.6055675185949201  5.9032712162110803 19.7622499078461082
 10.8099378376757400  5.9036872928014796 19.7619954652552501
  3.6061411514743802 14.6685282566504398 19.7160348881767469
 10.8104970612891993 14.6686721204206805 19.7164120885413929
  3.5989025126066201  2.9323214561917199 15.4705020250933902
 10.8037421414810595  2.9322861954637203 15.4702266622736282
  0.0041943932399400  8.8383017541350402 17.7108938747247819
  7.2082869016722801  8.8386848619447616 17.7108287003591052
 14.4058780933780799  2.9438994925341597 21.9439072550082805
  7.2010136805661205  2.9434742481544802 21.9427722918849781
