 K Bi  O 
 1.0000000000000000
     9.3325549999999993    0.0000000000000000   -3.0217470000000000
    -7.5149520000000001   17.6977839999999986   -0.6208410000000000
     0.0000000000000000    0.0000000000000000   34.9464060000000032
 K   Bi  O  
  32  16  36
Cartesian
 -2.5215983694659703  6.3441159585658395 15.8007270042917440
 -5.8774953998854302 14.9196325898297601 12.7791163894611302
  7.8967358921408479  2.7360367014967997 12.8633961806703905
 -4.7669472227041103 11.6358404476631208 12.7284138579563404
  1.9347695714547699  3.1452968946297597 15.7099836057886524
 -1.3028596768889802 12.1830295592449573 12.9016598063351413
  3.0237460968250400  5.3689967305759190 12.7124088040085699
 -0.2245677426332904 13.9914215153096784  9.8373383751428420
 -0.9802154927398701  8.5069285154162397 12.4152547423927206
 -4.4877882579888499 17.3875931700535986 15.6305096767187113
  6.3519395242445693  0.6138492308405600 10.4098281625797604
  2.5610642795202403  9.1049307965075190 12.5724029320756223
 -0.5162765697470504  5.0161926453807997 13.0348292407622104
 -3.4523552825589703 13.7198709650818405 15.4749244327562430
  5.2729316450243999  4.0636934860547997  9.8491134045611712
  2.1716934990920889 12.7685313645635183 12.5794119383176515
  6.5847757236605498  6.0618529396827991 18.5761222256888416
 -6.0792643707792191 14.9612413188586384 18.4398541759412105
  7.6943628278486909  2.7786304891831199 18.5243266179438635
  4.3394522299011600 11.3545658500164777 15.5030459943608410
  2.0421522333428999  3.7060832136587996 21.4666763925280506
 -1.2051012713489104 12.3291537905307180 18.5920349939609721
  3.1206734406449397  5.5150255708059195 18.4019903939024445
 -0.1176082044324804 14.5529185773441583 15.5938955915369419
 -0.7441664970004105  8.5935533278275198 18.7318835843897702
 -4.5339956746244408 17.0838650398904797 20.8940952458183133
  6.3057656111372991  0.3105872603079999 15.6729562010669436
  2.7980509414431385  9.1914995069435204 18.8882657267273437
 -0.3547364314370500  4.9294850073404000 18.7241225493263990
 -3.4556110245697300 13.6332647353437597 21.4543556229268226
  5.2696699590492102  3.9781507161572800 15.8285412266474150
  2.3338506376406896 12.6810379449135180 18.2698886586775231
  3.7603415716663990  1.3449466346368000 12.9138691225260622
  1.0699148969876386 10.8533382374383187  9.5197972275377101
  1.2804199467331197  6.7277743603865598 15.5784338058180012
 -2.2066209843936502 15.6298873134091991 12.0977834894395198
  0.3599904886458298  1.6806162562966398 11.8469017206691518
 -3.1657457866655907  9.9991907961576807 15.4426840524352826
  4.8814124420489486  7.5094980450932001  9.9654312693461407
  1.2929829828479891 16.5732257457811194 12.5670767186671508
  4.0245876005419889  2.0682812594371200 19.2056935024869944
  0.5367748388886397 10.9697560303687194 15.7259431456174479
  0.7482761090638097  6.8441218931144796 21.7838740428828004
 -1.9428795711274613 16.3526494148971189 18.3895293285179413
  0.5245304826557300  1.1245642714654400 18.7373220850718702
 -3.0645342065951695 10.1873127537646386 21.3389623272393330
  4.9829405664378381  7.6986321389671195 15.8608068484784148
  1.4579136902489696 16.0180057337757589 19.4553961614532795
  4.1627474099326784  1.7585864983762398 14.8799972727092111
  0.5522886397453304 10.6774183709658388 11.5198646060704792
  1.0798642587389096  7.0765831708436799 13.5349672975460731
  5.2793992890709394  2.4057443745275200 11.9748761145979206
  2.0227234612156684 12.7219907940673593  9.6461447781687291
 -0.0787897720368100  5.1149423865883197 15.8153917905720309
 -3.3980194767874510 14.0197172633024003 12.7574360713481720
  8.1251231155058896  2.3710284014331195  9.9657260262093317
 -4.7985153096481810 11.3201493234273602 15.6343837539121235
 -2.6709126096576199  6.3906469722586392 13.0291402338148501
 -6.3284789111112900 15.4046054957152787 15.4079251559832642
  0.6001261756082699  1.0053604933777600 16.6335347556989710
 -2.7949134295748808 10.1395487354605596 13.4089508166558318
  4.9566016728314590  8.1313277376728799 12.0678151310777722
  3.6353067068152494  5.9156701287319997 10.3118461104978323
 -0.2088550071599009 14.7347077369023989 12.4421488042294222
  1.9626166090524297  2.7125731564474398 12.8196259936163397
 -1.2790912049762406 12.0638921478472803 15.7373723061742510
  0.7377446504877794 10.6209739435654384 17.7687715708320013
  1.2647670921940994  7.0201047636979990 19.7836094767296302
 -2.3447858433879807 15.9391939620669589 16.4232331134737102
  5.2151582490589190  3.6786098816885597 18.5452559229899130
  1.8964527269821989 12.5824421744267987 15.4882625542599897
 -0.2049380824543503  4.9753399656844000 21.6581893229493616
 -3.4618201999726703 15.2908917472022399 19.3282716082690520
  8.1459018614419190  2.2934981262637599 15.8960920342641892
  4.4884201222896900 11.3071695916639197 18.2752552173387635
  6.6164749016839295  6.3776364463510395 15.6699607962534309
 -6.3072291159149092 15.3263195251691187 21.3376686747845135
 -3.1394989949094705  9.5667142960178388 19.2363429462135613
  4.6129752613228092  7.5586991234580791 17.8958616971498721
  1.2171954438830888 16.6923371414363189 14.6708540423426737
  3.0967574418452002  5.6340541408320002 15.5667826716344386
 -0.1443806404520505 14.9859817590235984 18.4846445124871224
  2.0265333793260094  2.9626633737968797 18.8616126015397185
 -1.8170055865954406 11.7811992497908804 20.9917289507521225
