Zr Pd  O 
 1.0000000000000000
     8.8920519999999996    0.0000000000000000    0.0000000000000000
     0.0000000000000000    8.8920519999999996    0.0000000000000000
     0.0000000000000000    0.0000000000000000   50.3010400000000004
 Zr  Pd  O  
  64  32  16
Cartesian
  6.0178805232379595  6.0177833331096000 31.8699592778799996
  2.7445564807840399  7.2476265060128799 35.0123256079280054
  2.8741579608429997  2.8742989887877202 31.8699718531400009
  4.4459922991229197  4.4460460960375201 34.2973164447439984
  4.4460208426098404  4.4460072377702797 29.5674502983167997
  6.6659050851931196  4.2360295215576000 36.7013515344120052
  2.8085275923619202  1.6734645349650799 34.8848657906303998
  7.2929127487231593  1.5955803853048798 25.6043797447848007
  0.0433145190998000  6.5948443405556398 33.4239958243888040
  8.8487365027744787  2.2972607449948002 33.4240642338032004
  6.0591314638301199  2.8678928877653602 31.9112815822400009
  2.2261514497534001  4.6560457756186402 36.7013957993272015
  6.0835405911727198  7.2186162752834004 34.8848808809424042
  4.4460378264291602 -0.0000009781257200 32.8074046700479940
  4.4460276005693595 -0.0000019562514400 36.8822295471583956
  6.1474943632491996  1.6444527036662400 35.0123366741568063
  1.5956179986848400  1.5991359612175999 25.5948879385368002
  7.2695725349514797  2.8244968285487202 28.7456575603272029
  7.2964693027615999  7.2929132822462801 25.5949176161504042
 -0.0000011559667600  8.8920491545433595 27.9265171961767997
  0.0000059576748400  0.0000147608063200 35.7902845106304000
  2.2634714809179202  8.8895848112520799 30.3715385792575994
  7.2714787241387198  6.0636774364945998 28.7420394065200000
  2.8329218699776799  6.0241715611074396 31.9112911394375978
  4.4417833352292400  2.2031669180617199 27.1423883679080014
  4.4502971193371597  6.6888603620337204 27.1423793137208023
  1.5991472541236398  7.2964623669610393 25.6043903080031967
  6.6285817639693594  0.0024562515239600 30.3715436093616020
  1.6205228579264399  2.8283385506948000 28.7420529878008004
 -0.0000152054089200  4.4460364926213600 26.4910361768647995
  0.0000104037008400  4.4460404051242399 31.0203319563959994
  1.6225016062580000  6.0675359646189602 28.7456590693583998
  6.0241356372173600  6.0591399112795195 19.2879342910104015
  2.8285252837867998  7.2716722151902395 22.4572207316455987
  2.8678982229965597  2.8329046193967997 19.2879589385200028
  4.4460350698930400  4.4460292011387201 21.6317021956231983
  4.4460030585058403  4.4459970119104799 16.9019965095135980
  6.6887700187853998  4.4417354959894801 24.0567787133335997
  2.8246556405974399  1.6223150510070399 22.4536216922336003
  8.8896166447982399  6.6286519222596398 20.8279413744527986
  0.0024574074907200  2.2633563288445200 20.8278784981528027
  6.0176901444046393  2.8741306622433598 19.3293073994208022
  2.2032924738359601  4.4503000537143196 24.0567938036456006
  6.0674149437912392  7.2697227217097602 22.4536091169736025
  4.4460264446025999 -0.0000184954681600 20.1790182206311997
  4.4460200423251601 -0.0000093366546000 24.7079855343712005
  6.0635374755961200  1.6203635123545999 22.4571940720943992
  7.2185606999583998  2.8086253160134000 16.3145442446344013
 -0.0000048906286000  0.0000072025621200 15.4090696904800009
  0.0000064022774400  0.0000134269985200 23.2729129595040014
  2.2971871188042399  0.0433419066199600 17.7751742749151980
  7.2473601001349603  6.1476219641954000 16.1868540485736006
  2.8743587433771598  6.0178936834749193 19.3293139385559982
  4.2360682019837999  2.2262891876388800 14.4980705731023995
  4.6560201665088794  6.6657652132151597 14.4981309343503995
  6.5948454965223995  8.8487453059059593 17.7751571725615989
  1.6447206211929999  2.7444283463147201 16.1868852352183978
 -0.0000188511502400  4.4460171968685200 14.3173726380791990
  0.0000063133569200  4.4460185306763194 18.3917805195680018
  1.6734871207771600  6.0833916493017197 16.3145663770919995
  7.2960832098637596  1.7089528923381199 13.4415651343064013
  1.7085169150285600  1.5959061900901599 37.7579812167768054
  7.1835539361216796  7.2961373624604402 37.7579238735912028
  1.5959946660075599  7.1831060434624403 13.4415681523688004
  7.3945780690137202  8.8741739959308799 32.9888078256520032
  1.4974541906308401  0.0179103711384000 32.9887499794560028
  4.2420640237268792  2.8822378128133197 36.9826968203712028
  0.0926662969050000  2.9229135265616000 36.1448751529751959
  7.2357440569252791  4.5067206571774401 34.0164128019159975
  6.0735131130528401  8.8899944680877194 27.6272773152376026
  4.4537290068065598  1.6167671219231998 29.8390779263584029
  4.6499448498209199  6.0098357948730392 36.9827114076728023
  2.8490507184978795  4.4497870712344403 26.7576508032599989
  6.0429625121554000  4.4422355849939601 26.7576201196255994
  8.8874146170409585  7.2909958890735194 30.7114730075775988
  4.4383235267165597  7.2752999945651995 29.8390185711311986
  2.8185320400671197  0.0020441938342800 27.6273100109135967
  1.6562310268249198  4.3853744692747600 34.0165113919544027
  8.7993938837828392  5.9691158876263204 36.1448374271951991
  0.0046514324012000  1.6010156520898799 30.7115378959192036
  7.2911355832104396  0.0045956792351600 20.4876216401664024
  1.6009256645236398  8.8874211971594388 20.4875929685736011
  4.4422302497627593  2.8491447074875200 24.4416933376424019
  8.8900492431280398  2.8185842364123599 23.5720517353528010
  7.2751546095149990  4.4536878366058001 21.3601470010792021
  5.9691337606508403  0.0924985928042800 15.0544755270624009
  4.5067187009260001  1.6561432622716799 17.1830490434199987
  4.4498325096201601  6.0429073814330003 24.4416888105488006
  2.8823821308172799  4.6499387143050406 14.2159008530976010
  6.0096758268575599  4.2421288467859597 14.2159431059712009
  0.0178964995372800  7.3944114319592398 18.2104970804392003
  4.3853132919569999  7.2359177187008390 17.1830812360855987
  2.9229394024329198  8.7995974228531200 15.0544533946048009
  1.6168744489908400  4.4383437116745998 21.3601535402144016
  0.0020281881406800  6.0734879485456794 23.5720748738312018
  8.8741486535826795  1.4976791595464400 18.2104492944512018
  6.6815025446857996  8.8260079732598804 36.4066945812271996
  6.6767737514321990  4.4385809516219599 30.3144670192736001
 -0.0004347324222800  2.2176791026078000 27.1773098649280023
  4.4973494124951605  2.2527748758850397 33.4498108211272012
  2.2152650883308400  4.4534785177017202 30.3144564560552006
  2.2105690178285999  0.0660555864077200 36.4066397530936001
  4.3946813355005601  6.6392846823591594 33.4497781254512034
  0.0004242398009200  6.6743571584601593 27.1772701271063966
  6.6744098883285199 -0.0004198826954400 24.0221992633855983
  6.6392175473665596  4.4974671432636395 17.7492969048871991
  8.8262441461610006  2.2105587919687997 14.7931148442952001
  4.4385789064500001  2.2152797602166396 20.8847704834239991
  2.2528456566189599  4.3945379956223194 17.7492471068575988
  2.2176738562971199  0.0004341988991600 24.0221685797511988
  4.4534651796237199  6.6767535664741597 20.8847463389247991
  0.0658156788447600  6.6815236188490390 14.7931354677215996
