Sr  O 
 1.0000000000000000
     9.7085010000000000    0.0000000000000000   -0.7804350000000000
     6.9167189999999996    4.3943110000000001   -0.7804350000000000
     0.0000000000000000    0.0000000000000000   34.7293659999999988
 Sr  O  
  12  12
Cartesian
  0.0393356591904600  0.0249970381235000 21.8840078245428415
  5.5172278961519394  3.5051906325153799 17.9270416267110591
  2.9602116195719996  1.8806792871061699 19.8492518706871763
 11.6836980991538990  4.3388735588879701 16.5490655830106803
  9.1325766151625096  2.7181026510019599 18.7567267334175938
  6.3741008860310995  0.9655963195420200 20.4196243697620581
  1.2400577355350397  0.7878245998663500 16.8795756758336779
  6.5496540074506493  4.1610979722186201 13.0090185514091896
  3.7911791566328392  2.4085939258003997 14.6719111383380199
  5.9677012096899009  0.7073885386788601 12.3250678177577022
  9.9635453672758807  3.2460152243700202 13.5793915655713384
  7.4065262556254998  1.6215052851403300 15.5016026602217796
  0.7861483021064399  0.4994408217075300 19.5675142969647595
  5.0266893550466696  3.1935706605938701 20.4082507066492482
  3.3813309922522499  2.1482136415219499 17.4267399985267133
 11.2520874285876289  4.0646852508697702 18.9532566295116496
  8.3492910784302907  2.2204556749308502 21.0117688632869886
  6.8939931467640605  1.2958904433753502 17.9606863589631978
  1.6716650656866900  1.0620089969477600 14.4753833611254077
  6.0297610475174697  3.8308052545648099 15.4679551574247096
  4.5744611554866301  2.9062343982912302 12.4168692777186092
  5.2208890388674201  0.2329446232655000 14.6415588830627588
  9.5424241386879594  2.9784836383701698 16.0019010144805414
  7.8970648684074005  1.9331246858014099 13.0203939509902984
