Ba Bi  O 
 1.0000000000000000
    10.7345919999999992    0.0000000000000000    0.0000000000000000
     0.0000000000000000   18.9529819999999987    0.0000000000000000
     0.0000000000000000    0.0000000000000000   53.6729600000000033
 Ba  Bi  O  
  96  48  24
Cartesian
  2.6836353331814400  9.3988501092369994 14.7001821519872014
  8.0509570962022394  9.3988489720580795 14.7001821519872014
 -0.0000007514214400  9.2280282091797403 11.9580306255872006
  5.3672962146918399  9.2280230918745989 11.9580655130112010
  2.6836395196723197  6.0959163999846595 12.4238308722176001
  8.0509521582899204  6.0959171581039389 12.4238308722176001
  0.0000002146918400  3.1876315374869595 14.7828546122752016
  5.3672962146918399  3.1876167541609997 14.7828578326528000
 -0.0000001073459200  0.0760723419726800 11.8971858846720000
  5.3672965367295999  0.0760664665482600 11.8971858846720000
  2.6836460677734397  0.0392745588302200 14.7350974859264010
  8.0509467909939190  0.0392749378898600 14.7350969491968016
 -0.0000005367296000 16.0433611418011175 14.7012679559680031
  5.3672957853081593 16.0433543187275980 14.7012620519424022
  2.6836428473958400 13.1763791862672779 12.4507865061888001
  8.0509495819878385 13.1763788072076391 12.4507881163776020
  2.6836409151692795  9.4051021294093395 20.0865320527872022
  8.0509512995225592  9.4051025084689801 20.0865293691392033
 -0.0000008587673600  9.4029505868926986 17.4135896613888015
  5.3672978248806391  9.4029416789911586 17.4136411874304002
  2.6836269601996801  6.2903385532283194 17.4476188547583995
  8.0509652544921586  6.2903396904072393 17.4476188547583995
 -0.0000005367296000  3.3613356175169598 20.1478249629183992
  5.3672969661132797  3.3613352384573201 20.1478421382655988
 -0.0000002146918400 18.9368492217215980 17.4626912953856035
  5.3672965367295999 18.9368496007812404 17.4626896851967999
  2.6836386609049598 18.9124267881760382 20.1513807965184029
  8.0509525876735992 18.9124283044146004 20.1513829434368006
  0.0000000000000000 15.8533802408295177 20.1270181032448008
  5.3672959999999996 15.8533739863454581 20.1270293745664013
  2.6836229884006397 12.9091235661449204 17.4878655238143992
  8.0509682601779193 12.9091231870852781 17.4878660605440004
  2.6836484293836795  9.4165739903542995 25.4645782099456035
  8.0509437853081600  9.4165745589437595 25.4645733793792033
 -0.0000004293836800  9.4202810041036802 22.7750573146624014
  5.3672967514214402  9.4202806250440396 22.7750492637184010
  2.6836484293836795  6.3307593884098994 22.7873596938240013
  8.0509432485785588  6.3307586302906191 22.7873613040128014
 -0.0000011808051200  3.3782888703861396 25.5028867484159996
  5.3672973954969594  3.3782879227370395 25.5028856749568007
 -0.0000021469184000 18.9068521475803770 22.8390226014719993
  5.3672980395724794 18.9068540428785781 22.8390354829824034
  2.6836512203776000 18.9023756427617968 25.5208988570624022
  8.0509402428927999 18.9023769694705379 25.5209138854912005
 -0.0000018248806400 15.8242623955232791 25.5066084314624035
  5.3672977175347203 15.8242622059934579 25.5066095049216024
  2.6836438135091201 12.8691265196408597 22.8022115385856026
  8.0509477571071990 12.8691270882303197 22.8022115385856026
  2.6836499322265599  9.4303651277065992 30.8339363250688017
  8.0509421751193599  9.4303683497135395 30.8339298843136049
  0.0000046158745600  9.4258960145510002 28.1520477246976029
  5.3672909547417600  9.4258971517299184 28.1520353799167999
  2.6836510056857601  6.3477689316356196 28.1663338564607990
  8.0509411016601593  6.3477598342042603 28.1663333197312014
  0.0000059040256000  3.3926264222094997 30.8708160893440038
  5.3672903106662400  3.3926283175076999 30.8708150158848049
  0.0000013954969600 18.8930392142987778 28.2083785696768032
  5.3672941751193592 18.8930384561795002 28.2083710554624005
  2.6836447796223997 18.8967884931980201 30.8978946343936016
  8.0509475424153596 18.8967856502507203 30.8979123464703989
 -0.0000034350694400 15.8072507674695384 30.8855960123392030
  5.3672995424153598 15.8072464082836781 30.8855976225280031
  2.6836499322265599 12.8547730473126194 28.1700796923392041
  8.0509420677734393 12.8547762693195597 28.1700813025280006
  2.6836487514214400  9.4603349095537386 36.2102858799616030
  8.0509426045030388  9.4603646657354794 36.2102676311552045
  0.0000092317491200  9.4359327556989196 33.5215663219711999
  5.3672867682508798  9.4359333242883796 33.5215636383232010
  2.6836484293836795  6.3769047822747602 33.5459198908416028
  8.0509430338867194  6.3768894303593395 33.5459070093312022
  0.0000282319769600  3.4326325661449197 36.1851095046144025
  5.3672666945638392  3.4326331347343797 36.1851100413440037
  0.0000130962022400 18.8815796727921175 33.5864290206720000
  5.3672829037977596 18.8815785356131975 33.5864311675904048
  2.6836473559244798 18.8794449984294594 36.2593901976064075
  8.0509444293836800 18.8794389334752175 36.2593070045184049
  0.0000260850585600 15.7668439574946397 36.2253164556800016
  5.3672700222873599 15.7668407354876976 36.2253153822208063
  2.6836496101887994 12.8378273756362393 33.5251683143168009
  8.0509430338867194 12.8378249117485783 33.5251543593472050
  2.6836473559244798  9.5525737661127792 41.7758224209920073
  8.0509435706163188  9.5525796415371982 41.7758197373440012
  0.0000030056857600  9.5157502069147988 38.9378737853952046
  5.3672931016601595  9.5157492592657000 38.9378721752064010
  2.6836482146918397  6.5668481563419991 38.9716576933376047
  8.0509445367295989  6.5667920555152790 38.9716469587456018
  0.0000547464192000  3.6998389085140801 41.2222008670208027
  5.3672417903103993  3.6998377713351593 41.2222030139392004
 10.7345827682508794 18.8753060462202988 38.9727853622271994
  5.3673055537868803 18.8753039613922766 38.9727907295232043
  2.6836501469183998 18.7045883875640406 41.7150630200831998
  8.0509419604275205 18.7044777021491591 41.7148714076160019
  0.0000536729600000 15.5724176345949399 41.2491505969664018
  5.3672421123481593 15.5724223728404390 41.2491495235072065
  2.6836479999999998 12.6641176097116404 38.8900699635712002
  8.0509441073459200 12.6641172306519980 38.8900474209279992
  2.6836497175347200  2.5844953400166397 12.3713451580928009
  8.0509434632704000  2.5844942028377198 12.3713446213631997
  0.0000006440755200  6.8465981507882194 14.6867676690944009
  5.3672958926540799  6.8466040262126393 14.6867880648192024
  0.0000007514214400 11.9873833820687388 14.5407165674495999
  5.3672963220377596 11.9873704940409791 14.5407230082048002
  2.6836446722764800 16.4504685417436392 12.2192681932288014
  8.0509466836480001 16.4504696789225591 12.2192676564992002
  2.6836477853081599  2.5965740754452398 17.6109070275072028
  8.0509444293836800  2.5965746440347002 17.6109070275072028
  0.0000003220377600  6.8653445452844197 20.0530352951808020
  5.3672959999999996  6.8653437871651395 20.0530471032320037
  0.0000005367296000 12.0512232799287986 20.0385462796288003
  5.3672962146918399 12.0512312401812380 20.0385725793792027
  2.6836448869683198 16.3423702089066403 17.5069371366911994
  8.0509463616102401 16.3423703984364579 17.5069365999616018
  2.6836459604275196  2.5825378760356799 22.8820597277183992
  8.0509456101887995  2.5825369283865798 22.8820591909888016
  0.0000002146918400  6.8603722304567194 25.4427703495680007
  5.3672955706163199  6.8603765896425797 25.4427735699456008
  0.0000006440755200 12.0522420027112993 25.4332433991680027
  5.3672950338867196 12.0522395388236383 25.4332482297344029
  2.6836456383897600 16.3298947875647791 22.8557326041088018
  8.0509461469183989 16.3298953561542390 22.8557320673792006
  2.6836472485785601  2.5757360298555199 28.2397112335360028
  8.0509449661132795  2.5757348926765999 28.2397064029696026
  0.0000017175347200  6.8533954482526998 30.8171989492224014
  5.3672942824652790  6.8533960168421588 30.8171989492224014
  0.0000027909939200 12.0590207262534186 30.7908766561792042
  5.3672932090060801 12.0590203471937798 30.7908766561792042
  2.6836483220377598 16.3368687268214998 28.2301821362176000
  8.0509437853081600 16.3368706221197009 28.2301762321920009
  2.6836485367295997  2.5747404297110599 33.6344292855296061
  8.0509436779622394  2.5747495271424197 33.6343981552128000
  0.0000079435980800  6.8658714381840200 36.1660067614208032
  5.3672883784396799  6.8658718172436597 36.1660067614208032
  0.0000004293836800 12.0730662126241590 36.0620846395392007
  5.3672952485785590 12.0730656440346991 36.0620851762688019
  2.6836482146918397 16.3418338395160383 33.6199349026815995
  8.0509438926540788 16.3418291012705374 33.6199112865792031
  2.6836482146918397  2.5108641421255600 39.1322777832448025
  8.0509441073459200  2.5109045119772198 39.1322267939328015
  0.0000000000000000  6.9739923250695988 41.4536719477760016
  5.3672964293836793  6.9739947889572598 41.4536730212352040
 -0.0000094464409600 12.0609599953716593 41.3016234295808076
  5.3673046950195191 12.0609596163120187 41.3016239663104017
  2.6836479999999998 16.3231215603874382 38.9862379529216057
  8.0509438926540788 16.3230713349851406 38.9861381212160012
  2.6836264234700797  8.6835344333156197 12.1281556599808020
  8.0509650398003192  8.6835331066068786 12.1281561967104015
 -0.0000001073459200 18.7311115696344785 14.7310779179520015
  5.3672958926540799 18.7311301435568396 14.7310789914112004
  2.6836458530815999  9.0041889430440598 17.3754394581504030
  8.0509464689561607  9.0041879953949593 17.3754394581504030
  0.0000005367296000 18.5419325693313013 20.1687085749248034
  5.3672955706163199 18.5419429934713982 20.1687096483840023
  2.6836438135091201  9.0406527746436804 22.7532558950400023
  8.0509478644531196  9.0406533432331386 22.7532580419584001
  0.0000027909939200 18.5227381263406166 25.5427217458688034
  5.3672929943142398 18.5227404006984600 25.5427217458688034
  2.6836456383897600  9.0462696803891998 28.1302124911103988
  8.0509463616102401  9.0462719547470396 28.1302157114880025
  0.0000079435980800 18.5171454804120579 30.9197014213120021
  5.3672877343641598 18.5171458594716967 30.9197008845824008
  2.6836473559244798  9.0654176885739783 33.5042535719936012
  8.0509449661132795  9.0654193943423600 33.5042514250752035
  0.0000127741644800 18.4806947263700181 36.2974942420992051
  5.3672831184895999 18.4806941577805581 36.2974920951808073
  2.6836476779622398  9.2546323204833190 38.9418504150016034
  8.0509439999999994  9.2546541164126186 38.9418321661952049
  0.0000298421657600 18.1600142510562392 41.5448070236672038
  5.3672662651801595 18.1600165254140791 41.5448059502080014
