Ba Na  O 
 1.0000000000000000
    13.9557540000000007    0.0000000000000000    0.0000000000000000
     0.0000000000000000   31.1349879999999999  -20.0171400000000013
     0.0000000000000000    0.0000000000000000   40.0342800000000025
 Ba  Na  O  
  56  28  32
Cartesian
  1.3090730313091801 14.2103043055859999  6.3714176294340010
  8.2885654098346802 14.2129921891000404  6.3698961266225993
  5.6684021825331605 29.7773381304633595 -3.6384206565563986
 12.6462304769517004 29.7777718408461993 -3.6378039284729979
  1.2728976235780800 24.8496122974999984 -0.1742339906735975
  8.2452894540259205 24.8503903608501204 -0.1765653869693988
  5.7061540322361006  9.2821024186561214  9.8338429871682003
 12.6941362541499601  9.2843494307400807  9.8298609775079999
  5.7101696608920598  6.4161526152961601 13.1200686710808014
 12.6887049538082408  6.4147017248553597 13.1192904046775993
  1.2670473715012800 21.9842316417206796  3.1087060798793988
  8.2465764536598005 21.9839377274339576  3.1102794270834018
  5.7636990487221604 16.9322370425027984  6.3350180617151999
 12.7430267493504612 16.9328902545510402  6.3318661628507993
  1.2134360633952002  1.3643809425923601 16.3426442535642025
  8.1940144786969800  1.3623767834148000 16.3415731364028005
  1.2991312312746601 29.8493963239907991 -0.1991517268883989
  8.2777441181830813 29.8484812666934793 -0.2007669099149965
  5.6823682637911199 14.2781231591473592  9.8090791827600015
 12.6558768336740410 14.2794174405985199  9.8098696596185988
  5.5947462249568805 24.6359493763996404  3.0608398936829992
 12.5704101214875603 24.6346024768187597  3.0616633988226010
  1.3844286601651201  9.0662843336863990 13.0697227615812004
  8.3604266574465598  9.0690768307601193 13.0693482408918022
  1.4017935257522400  6.4515135552174003 16.4949754896498000
  8.3813623818096605  6.4507831283989203 16.4961917310762018
  5.5795184039797805 22.0189580505864768  6.4884558453000007
 12.5551126612980006 22.0170809221599590  6.4858370028737991
  5.5784371121598602  1.3344331316847999 19.7856890163503998
 12.5532978550478393  1.3330912137019999 19.7848683136103993
  1.3981200921843600 16.9010721649143214  9.7760537041595992
  8.3782425730029590 16.9024358773887187  9.7784949945540021
  1.3834630615458601 14.2824985590109996 13.2027804944177998
  8.3630802045121211 14.2838460812916388 13.2024301944678015
  5.5936728879167408 29.8517797073222013  3.1944258788442035
 12.5733014746012817 29.8495227320420788  3.1950189867023973
  5.6778527400268803  9.0680029850240000 16.4633470072500003
 12.6546434241355215  9.0690827464078403 16.4646633343764002
  1.2956954641974001 24.6408475327118026  6.4560591050669984
  8.2776564760479605 24.6400156058324384  6.4540085492453994
  1.2137663960923799 21.9877439797169600  9.9293269468535996
  8.1903325321191591 21.9858948727796388  9.9323533382502003
  5.7622176454350598  6.4214365341096400 19.9385945441825996
 12.7393884842826601  6.4218711785421201 19.9384880529978012
  5.7106829535241799 16.9344896588846012 13.1552161666926004
 12.6875801200358396 16.9345295116692398 13.1537212866774009
  1.2661861619219401  1.3686053377642000 23.1615254309010048
  8.2446382785442811  1.3685421337385599 23.1624127907172053
  1.2724257795353400 29.6362480642420820  6.4301451157943994
  8.2398275905829408 29.6333970333909207  6.4336611264353998
  5.7050375719161002 14.0689969171484801 16.4376682193724015
 12.6890877601404615 14.0676743028582401 16.4398424811192001
  5.6686771108869607 24.7089282315222398  9.8926563470591979
 12.6438173875275606 24.7067581228586413  9.8938998117960022
  1.3097180662590602  9.1412234476534806 19.9025032404198008
  8.2878074728349400  9.1406599043706791 19.9014519402269983
  4.7765375335143005 19.6297948200141583  3.1968325395864010
 11.7560204221270794 19.6313674482580396  3.1941436371702014
  2.2003821017613001  4.0614290403501601 13.2049029117720007
  9.1772452162331994  4.0625059995850794 13.2029210147405998
  4.7846455474732208 27.2577031099772782 -0.1763137715196024
 11.7635996525669402 27.2587258943330824 -0.1742269846746005
  2.1943286539062603 11.6895147997448792  9.8319271466987992
  9.1692643391932211 11.6918287520530395  9.8346058403736016
  4.7405431319125801  3.8811724046244001 16.4200823611968012
 11.7211274086310411  3.8804099087682800 16.4187554249862018
  2.2393002338260199 19.4488376470584008  6.4121817343583984
  9.2155509698124014 19.4461108448093576  6.4108449897491990
  4.7950097881813196 11.6747141604993203 13.1363043731634015
 11.7741421082536206 11.6752160565058798 13.1372171547473968
  2.1821102517217201 27.2420425223631604  3.1271794980426009
  9.1594615384685412 27.2426094904946403  3.1261239942503991
  2.2373419624247401  3.9013843047843602 19.8611918668878005
  9.2128089432664808  3.9021022776076397 19.8626258947974002
  4.7383935271239608 19.4691909000638788  9.8525209805022040
 11.7180431869970398 19.4718333264954389  9.8531152893888017
  4.7848169241323397 27.2288468917490007  6.4312318463249980
 11.7648887455639208 27.2267082294232807  6.4287603300492009
  2.1925149641164201 11.6610539958642008 16.4392197478938016
  9.1692710379551396 11.6600934814843988 16.4377819167275980
  4.7766748581336600  3.7229540474546798 23.0759889889386045
 11.7556314752631010  3.7220333858595200 23.0770649102135970
  2.2015301020853397 19.2896709181541972 13.0658816725866007
  9.1780517192568603 19.2879908742017214 13.0692841860438005
 13.8174750861814797 15.3524863587679210  5.0572835808924008
  6.8368144714886405 15.3529499587392397  5.0584231566725997
  0.1373101053758400 30.9220215685812008 -4.9508804715084000
  7.1151233275800596 30.9214667430950421 -4.9515390354144007
  0.3409214859699600 23.6492831634290432  1.5658908193499990
  7.3214846894998802 23.6486638885177207  1.5666632807825973
 13.6109341137076800  8.0818788321944801 11.5765946464740033
  6.6342362353631410  8.0810634068587603 11.5758297915546002
 13.8780087273866410 31.1099735279410403 -1.8473886564275972
  6.8989819128145804 31.1100519881108006 -1.8482718126443984
  0.0752483091076800 15.5426386277297190  8.1606386789070022
  7.0564645023672607 15.5439540809727195  8.1615472568916019
  0.0427880626489200  7.7586568699202001 14.7877204248774010
  7.0232661360794397  7.7577408785732400 14.7875058411365998
 13.9139988027046204 23.3253061776957615  4.7783719583028006
  6.9352438462204802 23.3256791748520023  4.7784224014956003
  0.0427926680477400 15.5930713926420008 11.4854634138815968
  7.0207208856649208 15.5934920263298782 11.4860433104273998
 13.9113053421826205  0.0261751844116000 21.4938252356256001
  6.9350917285018800  0.0252526547171600 21.4937369600382020
 13.8763242678788394 23.3756287247505199  8.1027891443069997
  6.9032124600821403 23.3762554720589613  8.1036841106364026
  0.0785507987342400  7.8081876542301192 18.1117326641394030
  7.0556288318177405  7.8075232335861999 18.1116786178614007
  0.3449964265804200 30.8377646867553601  4.6883196495563979
  7.3221343298485797 30.8366562811825595  4.6879449286956039
 13.6127697140313000 15.2706480428099187 14.6971574788896007
  6.6377295001468806 15.2697052753732798 14.6981503290336022
 13.8190703684212206  7.9964752487605999 21.2154630835290021
  6.8417077775136601  7.9963482180095591 21.2152404929322032
  0.1394569190136600 23.5666991645084423 11.2055611430334014
  7.1157770150974198 23.5661673789134021 11.2066404672222006
