Na Cd  O 
 1.0000000000000000
    12.5180279999999993    0.0000000000000000    0.0000000000000000
     9.1557110000000002    5.9315870000000004    0.0000000000000000
     0.0000000000000000    0.0000000000000000   35.6603759999999994
 Na  Cd  O  
  16  16  24
Cartesian
  7.3040711954363688  0.5238323871994500 14.3007133401165607
  1.0454922333105601  0.5238848817444001 14.3019275759193594
 10.4834275485021386  0.4950475224899800 15.4325394403956011
  4.2241489846705900  0.4947914558791900 15.4325875819031992
 11.2842556400146705  5.3603201860885106 17.2565601841166405
 17.5440772728906005  5.3607842141395201 17.2554903728366398
 14.4405375338172490  5.6076171827624899 12.4438019617994406
 20.7001793932845004  5.6075872282481400 12.4445379919600789
  7.3519296414437108  0.4930527890977500 20.2262760615506423
  1.0949979763607300  0.4951795003007300 20.2286218010839214
 10.4341960178603088  0.5235295203672301 21.3586634561479194
  4.1746523299822194  0.5231855476371000 21.3598930259123989
 11.3103978701918102  5.6080191070976104 23.2159556872807187
 17.5710256225916694  5.6069126288586304 23.2161842702908814
 14.4134528832002786  5.3591966841948411 18.4028961347863174
 20.6731106221517393  5.3610529150306201 18.4051577158322388
  9.7187749150169989  2.0475406504466402 12.9753740698509592
  3.4594986851755998  2.0456902325661201 12.9751636736325597
  8.7616763817327090  3.8675143641097902 15.6035994112375196
 15.0208613469582382  3.8672639918225200 15.6033316018137604
 12.9013906311208899  2.0707478066365304 17.0335790624224792
  6.6421699055461900  2.0704413808521100 17.0331158341382398
 11.9697570993819902  3.8513491286904302 13.8717350640057600
 18.2296536800145894  3.8519057488145099 13.8705151225428001
  9.7712129085232995  2.0710709001804202 18.6271342847344776
  3.5127576310199005  2.0693220310693401 18.6264816998536809
  8.8417588499080697  3.8529864839659100 21.7900020925461604
 15.0998321575383088  3.8531226732034303 21.7884191284555193
 12.8476124302833909  2.0464400444787900 22.6854031093790383
  6.5905708932724600  2.0454537995083002 22.6844984056399213
 11.8914397342030096  3.8675450897304500 20.0578866962673601
 18.1501927861758396  3.8671123804588001 20.0562645057631208
  3.1374167263255099  0.0010335790347500 13.3160315795150410
  9.3957585596137392 -0.0001645422233800 13.3154638663291198
  0.0432053067765200 -0.0373018525351600 16.3785033043588797
  6.3025475021421391 -0.0377333161735400 16.3771114798835988
  8.9385164323848514  1.8816917577664103 16.5677646877149591
 15.1970580182516581  1.8814912108099400 16.5674169990489588
  9.5036433469453989  4.0873799655959600 13.4965861254669601
 15.7626123006562491  4.0881329805656108 13.4956204424848796
 11.9405077690869401  1.8031866699785801 13.2485403952936789
  5.6814438423948594  1.8032595098669399 13.2464692406555997
 12.7448538997832088  4.0332461079467707 16.0059190600620020
  6.4853312224451702  4.0328332694915705 16.0043935091767189
  3.1730018998350298 -0.0376133201685300 19.2829870823911200
  9.4312403724685296 -0.0372217167947900 19.2827253352312802
  0.0067736782661600 -0.0009229549372000 22.3447359714134386
  6.2675192992356088  0.0003152638490500 22.3432157695845603
  8.8111609304017993  1.8020386706306002 22.4157664479528016
 15.0699514091847799  1.8018603671253801 22.4130148933406410
  9.6148150588180687  4.0330167927933500 19.6555424417834423
 15.8738005099957906  4.0325928029545901 19.6545714097449604
 12.0676873631139578  1.8811987835708401 19.0929105028396791
  5.8088099420252295  1.8816187992463100 19.0924957726667976
 12.6324431711865479  4.0876766042618300 22.1647962103437592
  6.3746339814320994  4.0869722283055800 22.1636354651049601
