Rb Ti  O 
 1.0000000000000000
    11.3142169999999993    0.0000000000000000   -0.0133640000000000
     2.6757939999999998    9.5874129999999997    4.8949020000000001
     0.0000000000000000    0.0000000000000000   51.8595060000000032
 Rb  Ti  O  
  48  12  48
Cartesian
  9.6722610256469803  0.7937446067456400 15.8959008533183592
  5.8854156015140893  0.0107611040994600 20.5023571410544037
 11.1879070991350495  4.0871453209922501 23.6152925705724996
  5.5177040168364293  4.1477723817131800 20.0878288382309194
 10.8099827842537781  7.9253444512712798 23.5042978481644020
  4.5164327834645892  8.4527784325004909 20.5558580947835416
  9.0305378153100690  5.5146241588563401 17.3808978546219599
  2.7907850717113898  5.8703383693390698 22.1997575113943810
 11.1849593187563485  3.5557842395241099 19.8743509934286635
  5.7121833345982704  3.7240574311712198 23.6625708654728015
  8.8473466650550687  1.6398941088234100 21.8138172523331022
  3.3864945862203397  1.4328317781643800 18.9027004998664410
  8.5047371152450388  6.0545838075476599 21.2905218201305395
  2.5650540595313096  5.6313488987746094 18.2874799613034789
  5.7989443957810405  0.3063524559109300 16.4298039508508609
  2.6794145731052597  9.3123177155740606 24.9518353709960614
 11.0636588722114393  0.2507596498821700 24.1444399601113453
  5.6055030322794295  0.1302272688909500 27.9083870060299439
 11.2016405520325808  4.1918378575955195 31.0094073020033818
  5.5373135392401895  4.1098495613399395 27.4399143625579818
 10.7716756229208386  7.9968611832999992 31.0056844738399242
  5.0685306537336601  8.1691526514836692 27.3696721747493399
  8.4407483249190296  5.7950724794566995 25.5039613599240802
  2.7916483502821601  5.9312819105631291 29.4290299416040426
 11.1982814834853102  3.6562598483934599 27.3120244455758012
  5.5490673270284399  3.7925806852389496 31.2372652057140812
  8.9212279720864700  1.4184332095727201 29.3714936254990420
  3.2182644001187497  1.5904884439000699 25.7353682028120403
  8.4525047850317705  5.4776749402732499 29.3010411042803440
  2.7883737180227399  5.3957125300327702 25.7315601209687017
  8.3844254957045194  9.4572011668439799 28.8327178739602807
  2.9261443932515401  9.3366963017280700 32.5967584703188038
 11.3110624242246995  0.2751969110037400 31.7892356240778042
  8.1915694089225006  9.2804711099378299 40.3114398037884811
 11.4252137092504196  3.9561923808113302 38.4531941702310220
  5.4855941383575200  3.5328910312661899 35.4508365470022042
 10.6034119350003593  8.1554789871889390 37.8376292160934398
  5.1424179411376594  7.9473572473934100 34.9271346040586010
  8.2777384995827994  5.8634751238688896 33.0784720872800548
  2.8050785362470299  6.0312871609506997 36.8672180416178179
 11.1993301581146998  3.7168493264554301 34.5415083478113445
  4.9596711360720800  4.0730598773091700 39.3604757413698820
  9.4736372927311496  1.1344116601472600 36.1849376393623388
  3.1801947953248098  1.6621161022972000 33.2367458754995013
  8.4725115944425902  5.4397883603211499 36.6533598909707834
  2.8019450267763997  5.5001909797037492 33.1257113953939850
  8.1041225704085793  9.5766470063199094 36.2386278739668626
  4.3176734439398601  8.7930925732295790 40.8456243590540637
  2.5301646404380795  2.4003446981922099 22.0588360881002181
  7.9646091387854900  2.4119928297424300 18.4266156231179004
  5.9184210512689495  7.2998566416965192 23.4247298047367813
 11.5723582462491095  7.0595423824037198 20.0711840760463218
  2.4328328779213200  2.3903888409106200 29.4964371626464796
  8.1476347993758704  2.3015973163902399 25.8975338938690811
  5.8420753440126001  7.2858075343087103 30.8434388807823829
 11.5571050769178090  7.1972663371417598 27.2445133573624183
  2.4175301305287000  2.5277040842324698 36.6697272787001438
  8.0714397843470298  2.2876466717339401 33.3163833305647046
  6.0253755837862695  7.1756811396394298 38.3144118592108427
 11.4598906616962193  7.1869116434793705 34.6822942942434480
  3.8065742745015596  1.0646264149063400 22.0270273916873620
  9.0648402406971798  0.9764261461456699 18.8427239080957207
  2.6967620137609098  3.4002986434622700 23.6083060182307598
  8.2528071043848694  3.7909575362180501 19.6371586569220256
  0.8094276191491300  1.7164847874341200 21.9646451113348817
  6.1613207053372498  1.9384288923000101 18.5465475461147236
 11.3521019473425095  5.9549636835403001 21.5318965792931429
  5.5125350263265496  6.3023120133133599 24.9341262002778592
  8.3836308975486897  2.9942384345891599 16.7577017928692591
  2.7810492712106396  3.5153486540776999 20.5786806762740611
  7.6863374688692705  7.8457975897361498 23.4549454069888590
 13.3485733672447395  7.6506643018282396 20.0400194559794436
  5.7000185347736396  6.2777852057543697 21.8906955146640030
 11.3506720597252908  6.0183091593432501 18.5598604044281821
  4.7745455118348303  8.7365764034547890 23.1824780971816224
 10.3796334268728110  8.4248253711576897 20.2964808695175805
  3.5367580755274797  0.9205119700331500 29.5868643872546855
  9.2905252151693087  0.9043548781490299 26.3063908124900010
  2.6554875620676399  3.4731145658266200 30.9930339760508602
  8.2648893078950696  3.5278746091622000 27.2806939163587430
  0.6433045641101900  1.8960052608939200 29.4748670833132849
  6.3529037280255398  1.8170378626005099 25.7977866013635015
 11.2047933432294204  6.2031424018428698 28.7789349788255642
  5.3947376560148994  6.4492441988672500 32.4327208353676610
  8.5950240526484691  3.1381037984726099 24.3081341531102417
  2.7849674465143397  3.3843129745225897 27.9620604372233608
  7.6369812315552696  7.7704266218072995 30.9431941331620983
 13.3463623498516206  7.6917303555535295 27.2660921800967806
  5.7249411233439496  6.0597581343437605 29.4602597898489620
 11.3346028043085774  6.1143128152928794 25.7478964446489229
  4.6993302242932700  8.6830042405899093 30.4346590342254828
 10.4528708814309592  8.6667264431761204 27.1537112586994169
  3.6096455264756799  1.1625336517071201 36.4442273364050848
  9.2160979571418995  0.8515748273462100 33.5583293272223031
  2.6401852219770197  3.5681004220121695 38.1806020287894441
  8.2899235915575602  3.3096347930571199 34.8502411629302600
  0.6420751882119600  1.9365374874633698 36.7008718060615635
  6.3039014122573898  1.7411654729717598 33.2863051148094442
 11.2092530721196688  6.0718973331878408 36.1626277070159219
  5.6064525887149195  6.5933633415728101 39.9833701098161995
  8.4769682101251291  3.2856572483888997 31.8066881387670612
  2.6381214218925999  3.6317852922353198 35.2092238432878659
  7.8285827802860286  7.6490196770022196 38.1944431865717391
 13.1807082822282098  7.8706606278690501 34.7765275568800618
  5.7370081098974488  5.7965047430847703 37.1038490375633998
 11.2932695367771601  6.1871648822042404 33.1331604955062033
  4.9255557271873798  8.6111589479176800 37.8983608838598585
 10.1835878564386384  8.5228237842561008 34.7145960355441048
