 K Sb  O 
 1.0000000000000000
    10.3569960000000005    0.0000000000000000   -0.5447000000000000
    -1.6963269999999999   14.8089870000000001   -0.9398090000000000
     0.0000000000000000    0.0000000000000000   37.7471559999999968
 K   Sb  O  
  24  24  48
Cartesian
  2.3039050770539200 11.3563409870091601 20.1979580084967587
  6.8773846862394201  0.7216303855001399 18.7264898862292988
 -0.8059819638254899  7.6145339534069691 22.9163293455230850
 -1.1326801207356301 10.4490590687923515 21.0008469784382648
  1.6685397542083102 14.6069194090140897 18.4683001375162874
  6.1227262650379410  6.2336852138485801 23.0404173540482944
  7.4565744827762703 12.0449705816088901 23.0659434404049257
  1.6200613011399603  1.8976869766443600 22.2470591633410386
  4.5989465464415202  5.9863493633111995 19.5452398845210418
  8.3213587322430094  1.0635128807301901 22.2771623508485490
  1.0173376830593499  5.0376884697987299 20.2826598467333277
  3.3676806089834903 11.3428039439025916 23.8135704466727489
  2.6308348571244302  8.8091613104289301 14.2080814636446480
  5.8880293085301201 13.3388633189411987 11.7317566793833983
 -0.4218291032190600  4.8352020806604603 16.7473193904424988
  9.3323446991137207  7.9749131695797608 14.2379827173145195
  1.7992469687113701 12.6368369223417893 12.4792601180898295
  6.3534785352590308  3.8863400811045299 16.9399823909505720
  7.5874333948567116 10.0744950644216100 17.0770208957049263
  0.0315689893548301 14.2327816072892102 15.0890886869373286
  4.8296836889084709  3.6387782454255300 13.4448289693518479
  6.9521621398094293 13.3251464947324507 15.3473790499207290
  1.4011063459737101  2.2582684835795699 14.1135716606231689
  4.0746401072367906  9.1512009290110488 17.7586171303754909
  5.7720815904498508 12.2638246036289100 19.7763799774392695
 -0.2545720783901099  4.0657648790573093 24.5626646834929900
  2.8400169675724700  8.2854657719126106 22.0499251080310081
  5.8045172702233607  9.4380683337158402 21.4008857078623969
  8.5566067034341913 13.6587011561230511 18.8190066805207685
  2.6047124032826501  5.6486418176961903 23.8201221847581088
  0.6672523033054203 13.4140358102113790 22.7687827331637784
  5.0051001535895407  2.8860935622762600 21.3171110504496610
  8.1170544819699693  6.9644066883781504 18.8490813650178275
  5.0416952949805705  0.1174899120720300 22.9616799980390276
  7.9089220861306915  4.1403287209617901 20.4952954819075508
  0.6144284072376701  8.2369787790366900 18.4088718605046076
  5.9107665856933895  9.7549325263080906 13.5232727719263686
 -0.0195925354119800  1.6359698226515400 18.6204924909662175
  3.0435218746593202  5.7321696875216404 15.9900730774669597
  5.9471907333992107  6.9865603405706702 15.1682230471013089
  8.5887477282586300 11.2676900962209299 12.7764537180218891
  2.8353138286611106  2.9080270048320900 17.6363149208655692
  0.6992674939065102 11.0234804228392491 16.7262107651039287
  5.1476023896656109  0.4347440252919900 15.0844494041707478
  8.3477587275726997  4.2240109004317796 12.6650024557177794
  3.4840535805289505 12.4177803133796107 15.7687634056589285
  8.1120968723453206  1.5872680994641200 14.4352357099767179
  0.8501175006135102  5.8066232024729700 12.4670187530734484
  7.5048531848880016  9.5137244865014399 22.4219047639415194
  1.6811121387175803 14.1039616354432198 21.1106696347777003
  6.2729757705290501  3.4890881162903100 19.5485856522481463
  7.5219546268167212  6.0897942840225605 20.7932653191876398
  0.1359704969476003 10.1721065770638006 18.6742125120726357
  4.2941069128519000  1.9327863490925399 23.1403069389580196
  5.5360046422166507  0.9838251293237100 20.9630275265201860
  8.6046026609885420  5.0571396299536202 18.5467155693052170
  0.9423772694544401 11.5250337120830402 22.5264739014474777
  2.3513320412700205 13.9256572854468601 23.6744029974071815
  6.6371688085127607  3.6424836020628000 22.1911549486156794
 -0.5675801414783499  7.7020535856782697 20.2197483684646713
  3.9948171093463007  8.6701403159778607 20.3801008919732567
  6.9306602060642497 12.8562036314917503 17.9850965588943481
  1.0259796486558801  4.6763718447488394 23.0327917298810370
  5.2061931524528609 11.3375504557643403 21.7040763934662984
  9.7146069792060104  0.7481027825714700 20.0082189185890691
  1.7995460723463199  7.4033751253017606 23.9412273394741995
  6.4215691650062503 10.3844918854723502 19.5133440763427508
 -0.2118305364512600  2.2107729523833002 24.1797008387124137
  3.3489114310305901  6.2803893527795696 22.0141663331469282
  7.3589820136062007 13.1201861162259590 20.6362381497519571
  1.6349493073766199  2.3441409122268597 19.4653394075861357
  4.4710216695949594  8.8646086752847211 23.0439481755449194
  9.3167809020681318  7.5285550481431498 17.0197317342697509
  1.8969429666226900 11.5617637020897899 14.9089395057956295
  6.4809027386341107  1.0083810953873700 13.4413584545502101
  7.6037362066297707  3.5925063808250703 14.4710419823562297
  0.8075738397803199  7.6616118711698409 12.8501736095244787
  2.8346884756149500 14.2971035537844902 16.0323940816011685
  4.0494808019392305 13.3442417949297312 13.8412269528046874
  9.1525306764049006  2.4690695265588598 12.5438566285205795
  1.2363961428529504  9.1248628494518105 16.4762277575975702
  2.3259382993432602 11.8245345155076613 17.5601679935921773
  6.9571994863986806  1.2029316445720799 16.1050611762711178
 -0.4302838586529300  5.1958970244360900 13.9970083433483303
  4.3151534398996807  6.2302202070703192 14.2941366620685191
  6.9048941654146905 10.7556809217057889 11.8706975098691103
  1.1630564338476301  2.1705844715525702 16.8099575711726068
  5.4158662718053012  8.8887618369019794 15.5219479111677003
  8.3131510712556018 13.1566499887363193 13.0188216199803186
  2.3482528601472499  4.8153798072913494 17.9387548269678661
  6.6586042424117693  7.9397212409628306 13.3450884518765100
 -1.2376574745755300 14.5097440210390509 17.4154356729235253
  3.4307295692411199  3.7827578810836799 15.6922227600287982
  7.5750115931476305 10.5774746072033707 14.4345049440820112
  3.4473433401142701  0.3591130477842900 14.0633109372867668
  4.6793659250011599  6.3836294652007197 16.9367481428451967
