Cs Sc  O 
 1.0000000000000000
    12.8636219999999994    0.0000000000000000    0.0000000000000000
     9.6477160000000008    5.5701120000000000    0.0000000000000000
     0.0000000000000000    0.0000000000000000   47.2639629999999968
 Cs  Sc  O  
  12  12  24
Cartesian
 12.8874559289485191  3.0332479921747200 25.0629802191206181
  6.3553298136670602  4.0209152979129597 25.6880395128407990
 10.5890512139440389  3.1757040521836801 19.3065778611279306
  2.6944678542547402  2.0030704271692796 20.6458197403992365
  4.7051980938019202 -0.0373238722828800 32.9991072217832340
 -0.7361241513925603 -1.0108124579251201 29.6740959322465763
  9.4194133613638602  2.0765620949894399 23.5447794882650001
  3.7926432532245400  1.4957088103891198 24.1694370382996802
  0.8979833991441002  1.4758298047756799 16.2321586854983799
  7.6784973398797796  0.1328207688691200 19.5597917070626472
 12.9972354180933003  4.2381823624703996 28.5872932425564166
  4.8184231466035001  3.5601779137209597 29.9256649922688993
 -0.2485693627634800 -0.0091137058521600 22.3570389339127793
  6.6358738972843190 -0.2864256865516800 23.0453062159113813
 13.5145017564796213  4.9730045158713594 17.9511674527539498
  5.0969896792169997  2.0546821937433601 17.7482259210641793
 10.0581078290527213  1.6504798867200001 27.9133209461671719
  2.9943085042867406  1.9074119416339199 27.5576496991599385
  0.1453030327215800 -0.3199274593824000 26.1883488846998915
  6.5636646823814599  0.2106865342406400 26.8764942256739481
 12.9301178256552802  3.9305134384742400 21.6757686089966981
  6.4048936753459191  3.2540175988588795 21.3197764396806981
 11.7507448098327991  2.1847220841964798 31.4856683351998647
  1.7987863713162000  1.9245422640787200 31.2821506558011286
  6.9990024232036596  0.1854522001459200 24.9322386446700186
 -0.4449368591204002 -0.3984144593452800 24.3013408336004488
 13.4740983110896604  4.2405892078656002 19.7954616425713965
  5.8139149539792401  2.8996549272768002 19.3490563478741784
 10.6613562929162011  1.9851746599334401 29.8845472350174148
  2.4536526224914401  1.5913964276102399 29.4383688073425986
 11.4137395861143212  0.4215173343820799 27.1579771205185949
  4.9016883504989401  1.3239614252102401 27.2263595674662575
 11.2424851679234017  4.9609678380460798 21.8663473058845597
 17.6747648076233190  4.0444775400864001 22.2708266295629969
  8.2707688301044993  0.7673930491142401 27.8085447750698762
  1.7433487873486402  0.8948994298252800 26.3483747379856581
 14.4324042304968003  4.5073852070169602 22.8851607847992184
  8.0628733378155211  4.3613231122003198 21.4250304494439199
 10.1701930069191206  3.4258357244601600 26.9625567032610185
 15.8097141913527608  3.8842933732128002 27.3673191380778285
 12.4818881788024818  1.9869017288601600 22.0067940624975797
  6.7922762810323203  1.4658572433542398 22.0753419333157410
  5.7248605589021802  0.2826430234924800 17.4572632931606186
 13.2071649770155197  3.4389774568051199 31.3549830048652360
  3.2826194285694603  1.4204365448659202 17.8778142548175794
 12.9716975498423004  0.7550280688876800 31.7780871658034556
 12.3886319625213019  3.8422847582323203 16.9284877816658899
  3.3407135215781407  2.3353033779820800 32.3041780841997834
