Sr Ge  O 
 1.0000000000000000
    10.1825170000000007    0.0000000000000000    0.0090090000000000
     0.0127440000000000   14.4015799999999992   -0.0026550000000000
     0.0000000000000000    0.0000000000000000   43.2047590000000028
 Sr  Ge  O  
  48  16  16
Cartesian
  7.7671674973411706  0.6697516705794000 28.3210166408933119
  2.7540242845541902  3.7270352937299998 17.6530686165673210
  2.8263311813546501 10.9771252144333999 24.8833977021597725
  7.9224563053398009  7.5216995430451989 21.2914299034320997
  5.0939372383509500  1.7978696286087998 23.7231429947107380
 10.1855585144630503  5.3706262683991994 27.3252022588913412
 10.1889766650839011 12.5886732496657991 20.1424892662767121
  5.1005742021604501  9.0111037458551984 16.3562872812747102
  5.1080791060389696  8.6212280605217995 23.3899319365284519
  0.0163769030095900 12.3794495436943990 27.0285532301474376
 10.1746501422809104  5.0343424626407991 19.7886158424420202
  5.0936521886643806  1.5333939729357999 16.1452333795524829
  2.3327586075544802  3.7818304253139998 24.8936391866830533
  7.5538155230404405  7.8546371416906000 28.3024123622980355
  7.4015293897047600  0.3267181323066000 21.3005618245886303
  2.4026802128354303 10.9271655573501985 17.6734427580612135
  7.7925730386387704  3.4744033534331997 25.5377778169862069
  2.6414665062151101  6.5468879882896003 14.9087741145564507
  2.7937123682692304 14.0748651800568005 21.9105757844863440
  7.8625063545789100 10.6197393495642007 18.3175235041883617
  5.1015691618374808 12.8682564507903994 27.0657637835753526
 -0.0036279641705500  2.0221883506572000 16.1734384311303820
  0.0206128747241700  9.3672155029418001 23.4224003847617688
  5.0871993948913898  5.7803372498665997 19.8211512703914217
  5.0946702358932097  5.3904013659287999 26.8549363221197517
  0.0097433621621700  9.0308892125223998 15.8860330586872092
  0.0062773131848900  1.8129115028556000 23.0686647711519832
  5.1013030926688208 12.6037120995808003 19.4880123273462118
  2.2727988520111899  6.8798368201673998 21.9196640893834633
  7.4412569392750703 10.6746152740119982 25.5580072321682614
  7.3688876586920102  3.4244498890294000 18.3276452697360916
  2.4280781160983205 13.7318159440618004 14.8899533400341113
  2.6415970440777401  2.9345147621561996 28.3104592651262159
  7.7871810653229803  7.0771952083925997 17.6586227476934994
  7.8575035690586903 14.2194378891553992 24.8908455627679039
  2.7535459246008105 10.4507820292253992 21.2715435742157801
  7.5674169189630804  4.2828822758050000 14.9308904446059305
  2.3003343089460202  7.3635840201620004 18.2934593286679323
  2.3573913340419801  0.1200901671144000 25.5058793717929433
  7.3568597679579906 11.0934787476009991 21.9014790327458577
  2.8383635262709506  3.3080668326227998 21.3096339402662949
  7.8949323597467806  7.0379581036826000 24.9177357724018584
  7.8378345929857804 14.2814388512923998 17.7052863164207821
  2.6278186256358902 10.1188138009297983 28.2801637529099388
  7.4417292563699800  3.9508287901557995 21.9395901709093515
  2.4080923160572003  7.3243381304881989 25.5525667443231086
  2.3377724656375403  0.1822171430764000 18.3200172810881732
  7.5537153504883907 11.4670345624783980 14.9007311225430001
  5.1911677029027103 12.7124846410363990 23.5667707416253513
  0.0545340202417200  1.8743901196860000 26.8257845192755937
  0.1028287144056800  9.0858227432901995 19.8330863734380110
  5.1438537267903310  5.5104176529378002 16.4689206688029799
  5.1668701136338608  1.8062542284847998 26.9065598320143806
  0.0537174087504900  5.3857600247263990 16.3466277754494342
  0.1331563274067400 12.6370968342262007 23.4763580666477303
  5.2263222760112802  9.0541358109109993 19.7596674568671098
  4.9689200816990100  5.3474348280619992 23.4515379865564313
 10.1415632544671599  9.0158323606324000 26.8645483186027825
 10.0620948786432614  1.7644619954512000 19.7347730746052576
  5.0283870953858907 12.5952992726079991 16.3046063113910584
  5.0513956710025303  8.8911689717889981 26.7422428692734933
 10.1407603757378020 12.5271868559821993 16.3854140562542980
 10.0924458437621709  5.3157746826215995 23.3780888501843727
  5.0040817620516407  1.6890628113927999 19.6443431182899602
  2.5611511620807201  1.7339666498011999 23.3730620547303332
  7.6842351129668005  5.7501090535255992 27.0090700775796719
  7.6340808502430297 12.6676500742277991 19.8380565294424436
  2.5111324591169901  8.6514270216553992 16.2021834403090601
  7.6343364952882204  5.4757750842951998 19.8339755505512620
  2.5609514221124203  8.9258450961129991 23.3770113079287718
  2.5119225453560903  1.4353432637743999 16.1954416825907899
  7.6832869910052999 12.9661893550273994 27.0153865612868991
  7.6268144146889005  1.8749677670597997 23.3811750875177289
  2.5102456249546301  5.0482178089075997 27.0100708798733748
  2.5683868164845003 12.5267301818803993 19.8299495030498285
  7.6851550548375700  9.3533346840745999 16.2011234737480798
  2.5400330620503202  5.3310706007395998 19.8215221405693605
  7.6552516916340201  9.0704264461595994 23.3895368898557514
  7.6074587867705308  2.1789957780289999 16.2034630913557613
  2.5877383965017500 12.2227305420237986 27.0075012007219648
