Os  O 
 1.0000000000000000
     8.7425149999999991    0.0000000000000000   -3.2622480000000000
    -3.7410190000000001    9.6030490000000004   -3.1522910000000000
     0.0000000000000000    0.0000000000000000   41.2397160000000014
 Os  O  
   7  24
Cartesian
  4.9898494555277990  4.8746133059390004 16.9429864587160424
  3.2650811975913698  3.1860445717492301 18.1258093867305092
 -0.6000030818114700  1.4424411478624202 21.7664837117134198
  0.5179742188784000  9.4791528625642503 18.9561059983913722
 -2.9757891325309300  8.5773427268464797 22.9344559561063228
  1.7645031609234096  6.3777512932498404 22.5413609953091623
  6.7386340227295989  4.6590685497619502 23.0084987444336697
  2.8404774973955695  1.5098914275505801 17.9110524874360202
  4.2544371045180389  3.1510056387714602 16.4872195646482211
  4.2074882194893490  6.2190689750860004 16.2452881552900017
  1.8449590360204595  4.1495308658524399 18.0277652399220791
  4.7296428257735990  9.3552077495786001 15.2966016640581195
  0.3337186801724099  2.2554442070379901 20.5659694591998274
 -2.1695778584616803  4.8505376938520808 20.8456636025498803
  6.4662040976077586  1.7008830120139400 18.1830225315929006
  0.3278183512178994  7.7847721710586999 18.6958094545453406
  5.3621076952348696  0.5110331667302800 20.9461264414057595
  4.0252760966394092  3.2951504772371405 19.6717104519809425
  2.7355494045078297  0.6670972135842701 21.9310347285555096
  5.8479674122413599  6.9104425044812903 20.1052389668479705
 -1.9971816073827804  8.8561115568772806 21.5402911574620823
 -0.2086258758012101  2.0605520561318103 23.3279238300290146
  4.1315390961958487  8.9862235558697510 19.3052146905663093
  1.8027418773862396  4.6694335046696098 22.4719449602969696
  3.1485370783302589  7.2761510981762410 22.0881902263274412
  4.8683385494420799  0.1410700382063700 23.6985462376652123
  0.3418818064557194  7.1862455288589304 23.0425867234968891
  6.3337881962993690  3.0017409347314299 22.8788812605468692
 -0.5181201623593901  5.2316245141851407 25.6437551398810655
 -2.4124603178599604  9.5462795195011108 24.2436824284987082
  5.6537503101054600  5.7425571369923905 23.7687520053813515
