 K Nb  O 
 1.0000000000000000
     9.7897180000000006    0.0000000000000000    0.0000000000000000
     4.8948590000000003    9.3292020000000004    1.3363900000000000
     0.0000000000000000    0.0000000000000000   38.0301199999999966
 K   Nb  O  
  18   6  48
Cartesian
  7.3533723208224213  6.1480543891676405 19.2684294404650025
 12.1437609325685010  8.9318238944738404 14.8925227535908000
  2.5125577037843700  3.1036153184789401 23.3237587955276986
 12.2260473792971105  6.1482127057255802 19.2683520997876983
  7.4361273034545103  8.9324621051826600 14.8924890569358990
  7.2768342986062313  3.1059800846019003 23.3253802996125010
  9.7896814843518598  9.3103988067849599 18.5912431619807990
  9.7868627308481191  2.9984712003820801 13.7020107934027990
  4.8947540542230401  6.2015562431334006 22.4749312284405995
 12.1771510663912306  9.1394657159362200 21.6119419877928998
  2.4413201775335103  3.2129354672670600 16.8994997133514993
  7.3459638048801503  6.0821298631107004 25.5729586110912983
  7.4018633394031008  9.1388683671321616 21.6120572177747974
  7.3481555269459902  3.2133364363690200 16.8999028451844993
 12.2351309649377704  6.0797126668725001 25.5720327734134969
  9.7896137395033005  3.1421457623671203 20.0103915356088002
  4.8948529793234306  6.3899377404827407 16.2690384475179002
  9.7907407318394597  9.3016196545348802 25.0100661338167960
  9.7897689065336007  6.2101691490038409 16.1837751336491991
  9.7895478057525711  0.0680319927887400 23.4923763034890989
  4.8948029049158599  3.1430325963092400 20.0435382245321954
  9.7898703769606694  6.2269797179637001 22.6236081799918978
  9.7896795753568515  0.0771343085961000 17.4529816362022991
  4.8958329790438206  2.6921528234013605 13.8050564683491981
  9.7897086508193105  7.6276668525798605 21.0504214594634966
  9.7896653802657507  1.5844122406632601 16.0323004715544997
  4.8964777788198903  5.2309978441245004 24.9739930090250972
 11.8703990146588403  6.0945146586417600 22.5481824295503941
  6.9715951988421505  9.2337421533312600 18.7705063999044945
  6.4428941359636509  2.1325644308964602 13.0527962960529003
  7.7093026293390903  6.0945994610879399 22.5482949768522971
 12.6077589591153707  9.2337402874908605 18.7702619792561016
  3.3499669019488403  2.1316939230578402 13.0512949071580007
  9.7898593635279205  5.0206942147474800 17.9640302664521982
  4.8949547434420406  8.3677687733433608 14.4215533212283979
  4.8949664421550505  1.9445175720228600 21.7517498089216978
  9.7896390948729195  6.5006073583401598 18.2176816115479987
  9.7897106577115007  0.3900291199426800 13.1042830832797996
  4.8949217520923805  3.4127545662683998 22.0754841791023999
 13.1847043886295410  8.2211614834176014 24.0425775336311958
  3.5092032732784899  2.0021169980910600 19.0835558197831006
  8.3961447409488095  5.0578045675072199 15.2455514762966970
  6.3924487959786305  8.2201956311345405 24.0430039244564959
  6.2802746338875606  2.0022626269342800 19.0832374521605992
 11.1834827459352688  5.0579058826409398 15.2456443315392995
  9.7896264171881100  8.2516884049099808 22.4205440755728951
  9.7896144737321507  2.1186741820386601 17.4362585797094987
  4.8951072672484806  5.6669416579224006 26.2588744423739975
  9.7871040963454092  1.7823318208453800 22.5033921202690976
  4.8946032925658400  4.6142738734748407 18.5465260733545989
  9.7896583316687895  7.6407824045035797 14.7154664602036984
  6.7525742434012503  8.8593771367146612 25.3692878139350988
  6.9770060738779298  3.0285958466842198 19.9349402163896983
 11.8653495760116208  6.0358416280074003 16.1614822780573988
 12.8294689542965106  8.8555103690696999 25.3727175620778951
  2.8125556332742003  3.0283179297566400 19.9355130705647952
  7.7141609726909515  6.0356680115581804 16.1614266034422975
  9.7898938233352819  5.1378210397692001 24.4063417826947955
  4.8946898336729596  8.1651265645247992 20.5159119054447956
  4.8949128434490001  2.3462984078488800 15.8027680309295988
  9.7898819777765009  6.6224607302631604 24.6524606344157959
  9.7896116347139301  0.3030849688595400 19.5046065277667005
  4.8947450966310697  3.8227540558883399 15.5351981996322976
  8.3939862549755802  5.0500050747591603 21.7116409465481972
 13.2764431996758709  8.2894586121271807 17.8144290783484962
  4.2286858221064998  2.0330907883592402 25.1878756853901962
 11.1856091216334619  5.0499774603212408 21.7115692972202012
  6.3030498254314811  8.2894747516466403 17.8145728623495998
  5.5584621811241401  2.0353443503943600 25.1866871867897970
  9.7896923019902502  2.0827989223317003 23.9873243378994978
  4.8947262514239203  5.1861647779491609 19.9357413115909985
  9.7897696897110400  8.2762384798490398 16.0815776751183996
