Ba  O 
 1.0000000000000000
    11.9109680000000004    0.0000000000000000    0.0000000000000000
     0.0000000000000000   11.7936150000000008   -1.6678690000000000
     0.0000000000000000    0.0000000000000000   28.3537740000000014
 Ba  O  
  30  30
Cartesian
  0.1366066537726400  9.3005262828796518  9.7417150968469493
  4.0327102524828797  9.1963351194175509  9.7599987105960508
  7.9987618445408799  9.1293319365819006  9.7033454513997217
  0.0018525128530400  3.0394799418375005 12.4079081814296419
  4.0163530392381599  2.9607888147922505 12.3530456464687095
  7.8606252269286401  2.9777901363677999 12.3313017543844605
  0.0028617291716800  7.3487744008959011 17.4637658642292983
  3.7478897066216001  7.2526774312806008 17.6638039242284606
  7.9864846142748807  7.3897225397928006 17.1007185047401222
 -0.0575857187702400  8.3057027789968512 13.4754924454009331
  3.9283344398988804  8.3337909242254504 13.4813189626324323
  7.8732956382483206  8.3291731342721995 13.3360759713959389
 -0.0515843775434400  2.5586425826086501 16.8715808251584320
  3.7770033283749598  2.4142508775045002 16.4563553654265569
  8.0258882403931207  2.4427016763943503 16.3478651700040523
  1.9146272409535201 11.7479408057641521 12.1828818666097103
  5.9679217901146400 11.7134155875324009 11.9504558569943189
  9.8810624801230400 11.7400363711827023 12.0543685360235013
  2.0209418017988803  5.3018058247204509 14.8451069730274501
  5.8677222011307997  5.1839674437888004 14.8602225861820809
  9.9741098901519205  5.1964170196551001 14.7359469940807397
  2.1889203968576800  5.8170622596460504 10.8422063069928711
  5.9016910907700000  5.7328287232315507 10.3212327955162486
  9.7558890454239204  5.8260521785521000 10.8428607288203214
  2.0472509861366399 10.8317968711839008 15.8254121341481397
  6.1383011598835209 10.8145945864087505 15.6994961593221696
 10.0037942854918409 10.9314675420165006 15.7839211565017834
  2.0312131059440000  0.8400929261889000  9.9335774878596403
  5.9954020608261596  0.9874622832082500  9.5068911672731513
  9.8369368698508808  1.0954356590008500  9.6114773655914316
  1.9196378278620803  9.0168688494949496 11.4291800478999317
  5.9477442529936004  8.9908845672461997 11.4681325458849805
 10.2546421302041608  8.8871485193869511 11.3116451979267900
  1.9909197305161603  2.5407853983925501 14.4191837213864495
  5.8894204115364008  2.5140509242936502 14.3486983572828102
  9.8843323981680804  2.4755355722989503 14.4972739675066702
  1.9844786363508000  3.0822169362576002 10.5740308449283393
  5.9149955229163202  3.1598485249312502 10.6298198311100887
  9.8386394236168009  3.2621274716572506 10.7442800143724906
  1.9916416542866402  7.9447290002674507 15.5520107038449709
  6.0942854878459993  8.3069453542732496 15.4946027527190502
  9.8328142456067198  8.1387617999488509 15.4606507086694887
  2.0503841662690401  1.4167156677247501 17.9036374614503870
  9.6369792314669596  1.4713017071353500 17.9071124669067103
  0.0065761645424800 10.9577169447304499 14.0484035122488908
  4.2747075333131201 11.1531707570832008 14.2228307271203001
  7.9466415925471212 11.0888620614666014 14.0276307374934586
 -0.0068480919419200  5.1597707197656009 16.3478755577016415
  3.9777877070477601  4.9295343525018005 16.6313880616944196
  7.8155541240166411  5.0622539168404508 16.6330645876556318
  0.0660248778176000  5.6594921332685999 12.8229402640919012
  3.9037629466826402  5.8245545073832501 12.8715650359183904
  8.0671509303967994  5.8154996056585508 12.8767737242291709
  3.8756862938033603  6.8170030130773505  9.2985818229557289
  7.9841855592315207  6.7023641219590502  9.4480033593078510
  0.2582684968860000 -0.0491516595547500 11.6890949960171309
  3.8377047181546402  0.1977080439238500 11.5187970435316309
  7.9411685027511201  0.0882244957305000 11.6865182891146606
  1.8123074996656801  7.6164603311668504 18.9082092200682297
  7.9476554541432805  0.8370013479528001  8.3148647832503197
