Rb  Y  O 
 1.0000000000000000
    19.7016840000000002    0.0000000000000000    0.0000000000000000
     0.0000000000000000    9.1449010000000008   -1.7599370000000001
     0.0000000000000000    0.0000000000000000   31.6788670000000003
 Rb  Y   O  
  27  27  52
Cartesian
 17.1082329279591612  7.0436069558393299  8.3414841770087804
 19.5479249654577600  2.9893687318261306 11.5273176345094797
  0.0237732340154400  9.0113610285143313 11.8363678626612518
 13.0611845177920785  4.9645320947403402 11.9503170570636801
 10.5835566907346408  2.1091643288592903  8.9463715563320818
 13.0829054273852403  8.2054128558714510 10.1287090284699897
  6.4276610078548799  4.1515940170181107  9.7745406787325599
  7.1881150786110002  0.2099944531120100 10.6500481997128009
  6.6353729070142800  7.1868913680345612 12.1680756663918199
 19.6650690113365201  6.0256444043515600 13.6692500847816998
 19.6884432862509620  3.0387371140785904 15.6091154310255114
  0.0302310519969600  9.0911844002200617 15.6604658376397090
 13.1707193792763597  5.1513377309376409 15.8588306423535990
 13.1042853008283604  2.0857928882716101 13.8671197312049799
 13.1477570665743606  8.1378330434205619 13.9183539819710411
  6.6175554920720403  3.8443059562279904 13.5550153907525495
  6.5672001549532801  1.0159262563821001 15.6437020361406880
  6.5165540209786803  7.3324186586490505 15.9734234483732536
  0.0732847480084800  6.2118685162942704 17.5772182479752033
  0.0520699746772800  2.9719679971013502 19.3989455475091006
  2.5503719608569599 -0.0771782090914800 22.3417202113545699
 15.7285330602138007  4.1343419783835902 21.1863151361972086
 13.1107037154418791  2.1649465788771103 17.6906515520279655
 13.2885571214487612  8.1879160996861717 17.9993442313734668
  6.4987661585624394  3.9900643384907504 17.3592758308243482
  5.9458878483292796  1.8221333211722901 20.6390683617227886
  6.7064977594058401  7.0244274464210408 19.7531141612288330
 16.1955039505165210  4.0251723450218302 10.7202171244875704
 16.5282053031403215  1.1119120517682000 12.2792775339313387
 16.3806424482160793  7.1529021486918207 11.9932674190316604
  9.7965961713417613  2.9977267140950805 11.9969069436197309
  9.8532006856084813  0.0590151554193400 13.7070814794867619
  9.8368646402861994  6.0801737114833712 10.7133454627383493
  3.4120861858173601  5.1492917422369100 12.2214431581155889
  3.3145490588385602  1.8591353281494802 10.5067316954705898
  3.4229912649282004  7.9933285185339109 10.6539845222152501
 16.3759294113696008  4.1006362509718510 14.0264921458644700
 16.4180096471746815  1.0162477911012602 15.6439696169725693
 16.4602835505334788  7.0771477092370310 15.5016265607173622
  9.8925555874658411  3.0379963770975906 15.4976580893115568
  9.8781116918749206  0.0368097811581700 17.2928269545625675
  9.8909540375734792  6.1320548381836009 13.9672317512638102
  3.2436822985074003  5.0450076807853899 15.5604923246276705
  3.2564543091940803  1.9948670580578203 13.9951592872963495
  3.2414711785120804  8.1393921575920505 14.0303016597530110
 16.4554438318588794  4.0249090633220401 17.5345061286949999
 16.3081347346245593  0.9201831666685401 19.0088160464911375
 16.6407472326535206  7.1525016934770314 18.8078007728990499
  9.7113840238396794  3.1838072510920901 18.8741208088410168
  9.8199802970981995  0.1726412819364200 20.7812296432795982
  9.7220134763913606  6.0277234061448999 17.3061278384505108
  3.2975920164365999  5.0968986839787007 18.8142306728442996
  3.2817357071197200  1.9728894832805601 17.5807972478188219
  3.3381183804246000  8.1795556482939507 17.5309626790675814
 15.3454359820190405  6.0237988718807500 10.2702844765464594
 15.1892232997514398  3.0672305222673599 12.3177147822957398
 15.2134670099807998  0.0242397489376300 13.8410913759890306
 17.4745506729416427  5.0044334011305702 12.1203175260107603
 17.1723077297481623  2.1337192110853800 10.4237889611995804
 17.5047961071679197  8.3126604139410301 10.4829556714308492
  8.7229716183615604  5.1767262623388905 12.2623641587358012
  8.4364066842447603  2.4718046464222101 10.4376332793091695
  8.7346192539423608  7.9278406021867713 10.4925072346797101
 10.9488479779807193  4.2597286304846902 10.3993809526721410
 11.0598027398308805  1.1340983131862801 12.2346964277168802
 11.0551202405946007  7.1388664631880108 12.1364621455629411
  2.2807569765358799  0.8166694716772600 11.9047942887938394
  2.1804332433721201  7.0421910508175012 12.0989989104545117
  4.4945833921869598  6.1525165541711004 10.5794618595474095
  4.2885579571779600  3.0365927262431001 11.8449490506554209
  4.3936229005963199  9.1032490852113401 12.1691013693497290
 15.2651208850919993  6.0854645854059308 13.8804892229418595
 15.3169581828812404  3.0409542038770301 15.7244477669586100
 15.2529192381571193  9.1236648937958211 15.6153969473334673
 17.5707098641414809  5.0916070784640599 15.6472701572870108
 17.5826940044849991  2.0536505731348300 13.9126741177494200
 17.5187699205785989  8.1364667952111596 13.8034892613187701
  8.6974264148871612  5.1243792029327109 15.6459085469843284
  8.7437145363609599  2.0432358111819702 13.8945009020542596
  8.7478650901292401  8.1685559784731314 13.9889077995885511
 11.0248511643475187  4.1751824661065209 13.9841298806108902
 11.0121106763552401  1.0532843658042301 15.7041541318882913
 10.9805533069913999  7.1832360596558500 15.7465133901432779
  2.1544776538199999  3.9929446165097100 13.7810807143912921
  2.1222098417311202  0.9788123158166701 15.5835571198082512
  2.1090146388721198  7.0010468609323597 15.5434282508105586
  4.4364908097277196  6.0528414313745706 13.8816045300545206
  4.3868567512601997  3.0086427995207603 15.5388119116598613
  4.3906201669378797  9.1340350286318017 15.6338923723044907
 15.3611860992591609  6.1729978402467403 17.4077097166401487
 15.3316430300674806  2.8646931872267900 19.0448806004496909
 15.6641759332930803  9.0440695959210302 19.1041434912436898
 17.4910191135803998  5.1536774538584904 19.2573856220780399
 17.6227095038068811  2.0083334734743801 17.4460947984898809
 17.6467619106845994  8.1101808746747803 17.2098661227183882
  8.6398653838622401  5.0244306475962803 18.9483914837201013
  8.7410293938486010  2.0737110108664503 17.3586268951913212
  8.8460104080931199  8.1404101679713712 17.6829071965085696
 10.9543435657156785  4.1347481034370004 17.4289335947817108
 10.8541673981650817  1.2159901700492002 19.3834333284382190
  2.0787508820797198  4.0380400437699207 17.3914300747138810
  2.0752979649418801  0.8987648025874301 19.0531879137937317
  2.1856608882046800  6.9175847331187308 19.1282140670365806
  4.4118065698441207  6.0000163679931200 17.2653761789721294
  4.3996943685546004  3.2495062317543106 19.0355840872788811
  4.6982069948995200  8.7054083976172407 19.0907565455725994
