Rb Sn  O 
 1.0000000000000000
    13.7696790000000000    0.0000000000000000    1.1955530000000001
    -0.7750160000000000   17.8372260000000011    3.7049219999999998
     0.0000000000000000    0.0000000000000000   31.3070899999999988
 Rb  Sn  O  
  48  12  38
Cartesian
  3.8640744294035398 10.3435719060168019 18.8959909350296797
 10.7105647874723307 10.3906058170226405 19.5366462407131678
  1.7853481190142402 16.9214672764665011 16.6755838626420783
  8.6291078623173600 16.6643076324799821 17.2713596963678384
  6.3763350573216799  4.5938002542735603 22.1750072471332977
 13.2783666539503109  4.4424242790800399 22.0952166960574274
  6.5916917175664498 13.3939093245031806 14.7093568447769680
 -0.2606615212450700 13.2424816213542602 13.4400642158903505
 11.2478087724785212  1.1770997700389401 19.5373715461415998
  4.3243162684923302  0.9159695595448201 18.9299832809999913
  9.1689795625921899  7.4452640186845800 17.2643543796465480
  2.2479723750097897  7.4887882771026604 16.7145554254986699
  3.0221381722571601 13.0002301524862798 15.9402215366166402
 10.2613978691539689 12.9340629626392793 16.6389072273449088
  7.8338056508746092  0.8698332177513000 21.1968053094583695
  0.8551453345243600  0.6495120831335400 20.7500655260494788
  5.8424625639506509  7.0706394633421805 18.5688864046997715
 12.5342265199626191  7.1743270797079211 18.9911912992852194
  7.3445008725293697 10.6630703360339396 17.8135158653111496
  0.2705108703131999 10.7620075423713608 17.0437064171863391
  5.2525017794934303 17.1965197985981426 14.8538014881910705
 12.0470226652383285 16.9682721574905031 15.6107307274796092
  9.6167127346523209  4.9032372402208795 20.1640117628087623
  3.0879061106165802  4.8339743998015798 19.6709965198516805
  6.8478016802682298 11.6818995079135810 21.2778066290813257
  0.0095768207731899 11.6380543577997617 20.5835518044394732
  4.4899822430833707 17.7330068342994629 19.0376147714112314
 11.4013355814354700 17.6146259813884818 19.8185548914323100
 10.5477055699494606  6.0131741464575006 12.8718176166151181
  3.7601046162246607  6.0034045194050405 12.2845969625514790
  2.3517224197611095 11.8329615479295001 23.3267167443690688
  9.3391133276080218 11.8273410380169004 23.9251924187861356
  8.4769639919521698  0.2237284015282800 16.9872000538348082
  1.6177897521567099  0.1023262792774200 16.5736477921936469
  6.0994835330068193  6.1979205391686003 15.0292976624804400
 13.0276305306254816  6.1551135156079804 15.5280170961043797
  4.5208135843700505  8.3877170427883811 21.8259652368377672
 11.4567926664957707  8.3285534613580214 22.3508987931155723
  2.4588507037796896 14.3867905053483618 19.5426660177514684
  9.3970002614821304 14.3614900056177017 20.0597347634594101
  7.2648477031056302  2.7895808978769603 14.3113277115974498
  0.5391975277250101  2.8587442065751798 13.9907687416960904
  5.5719535969841703 14.9810689046838608 21.6220793350048268
 12.6176828508777206 15.0498579883806016 22.4913747848784382
 10.4792785377634203  3.4749012122055003 16.7447946504758391
  3.6519604658267495  3.4500527077816803 16.0676303899562676
  8.4220518823916191  9.5101913784358807 14.4534839292338582
  1.5902010252559200  9.4510832707783816 13.7859066828157584
  2.0390297260925898 15.4637820551629801 22.8621704639658496
  8.9479483672160995 15.4994862953303993 23.5000298106347003
  7.0348199922204602  3.3772108279654804 18.2218366441510398
  0.0317489949782500  3.5329342702519804 17.5589153584755699
  4.7602921275295094  9.6167605986619211 14.9662402257415490
 11.6479431069268298  9.5188030127764200 15.4571876189421893
  8.2313933655193914  8.3172052398045597 21.3449090154737711
  1.3501258071144799  8.2192865390717404 20.6450446071692220
  6.0776477531507105 14.3067104575936224 18.0484867589453515
 12.8444749523763200 14.4598799658614396 18.5839829482970984
 10.9346245530960893  2.3394465488255403 13.3064116657781906
  4.0714590161632200  2.3700332888535605 12.7511978738922789
  0.4248127326489199 16.7137800706522803 22.7402646663824548
  5.7924344141163502  4.0844006516035805 19.6435816071046716
 12.1911881336296712  4.3630086679938005 19.6316660547537865
  3.1267599737309095 10.2307457436544791 16.1147532109288889
 10.1105419413845006 10.1385106966143024 16.7187504825258983
  9.7699962291457894  7.6976555937890412 20.0843874338031867
  2.9842955454768498  7.6025906708439610 19.4990044834189895
  7.6866060681213089 13.4758786912358417 17.1721806825831287
  0.3198273970071400 13.7497803555459619 15.9720758229259197
  5.6861328541317304  1.1202578819447402 12.8753227401377686
  9.1842075407036887 10.0287518236349413 22.0380671370390893
  2.2306141445878400  9.9115532220632421 21.4449796371245398
  6.7554504869692495 15.8334863900855414 19.1504332348082116
  0.0193753950436201 15.8117659999853402 18.5233317597123985
 11.7283380886490498  3.9674544467797803 14.2138679380450696
  4.8259811478267398  4.0728740577901199 13.7068312526844593
  1.2834785991849800 13.7630262795735607 21.9030920657649979
  8.1500668040322299 13.8732043273639221 22.5930115039713861
  6.0896384975731799  2.0285265759085802 17.0834628259454782
 13.1212215361247893  2.0054885499237605 17.6540894048209651
  3.8803199778729098  7.9252268472867611 14.1649399726115099
 10.6938111292247413  7.8071718804948009 14.7650906250959810
  6.7358111007532404  9.1619188272968408 20.1860914961116400
 -0.0879878071908000  9.0905590425889802 19.4268865533240174
  4.9572897561485103 14.9118162314833818 16.4781468941748876
 11.2858179898456292 15.4331699862740415 17.7269397344424675
  8.5935582381771116  2.4024176645178605 19.0744862734633109
  1.1527670542913802  2.9263371258963602 19.1281249229464017
  6.2001462507282099  8.7451643494927804 16.1820029775140881
 13.1439176386614793  8.6756271725376006 16.6167688869697585
  5.1588090424505797 12.9916916507723403 19.2403349597938202
 12.1342056995473602 12.9231678066262212 19.6530200581431025
 10.0549380882864092  1.3485233602783802 14.8452273379182902
  2.9423163454248300  1.4816415076828202 14.2879261569306895
  3.1655077163011498 16.3544771573270999 21.3251040302617483
  9.8247986750323300 16.4908598738340615 21.9606993490231517
  7.7418399699048104  4.9166938218875407 17.1553997664318274
  0.9513531605856300  4.8443656541801401 16.3671870567603683
