Ba Cd  O 
 1.0000000000000000
    12.5203860000000002    0.0000000000000000    0.0000000000000000
     0.0000000000000000   12.1891180000000006   -3.7195659999999999
     0.0000000000000000    0.0000000000000000   33.4760940000000033
 Ba  Cd  O  
  24  24  48
Cartesian
  2.8429499609524798  4.3941787454765207 10.3769959064186601
  9.1031413333023004  4.3941782579118005 10.3769967247231794
  3.5495003837044798  7.9045586743034413 11.8598762135301605
  9.8096937593160600  7.9045590399769798 11.8598734238556602
  5.8407945000615005  1.8099995524122601 13.7196559031164220
 12.1009891277116797  1.8100007713240602 13.7196582092473420
  0.2871512967942000 10.4887407927560208  8.5172163284193836
  6.5473434203671799 10.4887384768236007  8.5172146918103415
  2.6608141529564402  4.3831862331905800 14.0668024027658625
  8.9210064017332797  4.3831867207553001 14.0668015844613397
  3.5993868600906005  7.8059310354623408 15.6897291680175037
  9.8595767299941013  7.8059314011358802 15.6897257088211202
  5.7909101521410005  1.7113739857212200 17.5495088947994233
 12.0511034025487209  1.7113737419388602 17.5495096387126210
  0.4692874804018200 10.4777446237346794 12.2070182497004005
  6.7294807308095406 10.4777443799523198 12.2070186588526610
  2.7106982504692203  4.2845574973288603 17.8966533486875612
  8.9708918764885208  4.2845588381318400 17.8966539438181194
  3.4172498000559601  7.7949359634616204 19.3795314240594614
  9.6774416732212210  7.7949399858705606 19.3795305313636206
  5.9730468365640599  1.7003798888499400 21.2393125270807985
 12.2332385845254610  1.7003787918293203 21.2393128618417393
  0.4194016300350000 10.3791173505671210 16.0368717621226402
  6.6795961324813202 10.3791191789348201 16.0368691956221028
  5.8772382136110002  4.8051617967973002 12.0154409241962608
 12.1374310884071406  4.8051633813826404 12.0154407754136230
  2.8455675980535000  1.3490579382743200 12.1459363179572613
  9.1057585947917410  1.3490614731185400 12.1459369130878212
  0.2845268986847400  7.4436070650887407 10.2861563308057207
  6.5447152661419201  7.4436035302445207 10.2861567399579812
  3.5130547920970798 10.8997209186884803 10.1556578870006007
  9.7732490441356799 10.8997223813826398 10.1556601187402009
  5.7804732835752599  4.8391407915900002 15.8182626394961439
 12.0406664087791206  4.8391405478076406 15.8182613748437042
  2.6503686453243600  1.2554261313366999 15.7980462775469039
  8.9105638989938392  1.2554251562072600 15.7980495879606408
  0.4797232221328200  7.3499736735657812 13.9382657696561214
  6.7399183505984404  7.3499767208452802 13.9382655092865022
  3.6098252311026600 10.9336927219015614 13.9584794535178425
  9.8700177302872198 10.9336938189221815 13.9584794535178389
  5.9756731127314202  4.7455116662583396 19.4703721155422009
 12.2358656119159797  4.7455097159994599 19.4703720411508847
  2.7471382079029198  1.2893980564409599 19.6008688111513010
  9.0073345884071401  1.2893979345497801 19.6008691831079034
  0.3829596693395400  7.3839503524260603 17.7410871873907183
  6.6431535457665607  7.3839548623997198 17.7410864806731823
  3.4146299092854600 10.8400592084874194 17.6105926119342406
  9.6748187775580803 10.8400640841346210 17.6105901198250194
  1.6256002172002200 -0.0266714966605200 13.7984146631223012
  7.8857919651616202 -0.0266721061164200 13.7984131752959005
  4.4525454939327602 12.1089529744111406  8.4697608035432808
 10.7127407476022398 12.1089529744111406  8.4697618078261030
  4.9377426288247799  6.0143903176757396 10.3295432456083827
 11.1979353784170605  6.0143901957845598 10.3295422785212221
  1.5044965332075000  6.0678883565777406 11.9386273856214018
  7.7646900340229399  6.0678881127953810 11.9386281295346013
  5.1327034438122006  9.4162758823141015 10.3068439617671608
 11.3928951917735990  9.4162784420288794 10.3068431806583014
  4.2575928171962403  3.3217187106818002 12.1666267385932017
 10.5177851911769409  3.3217177355523599 12.1666253623537806
  1.7587828183825802  9.0001998518193815 10.1414312909638014
  8.0189761939941597  9.0001959513016203 10.1414294683764616
  1.3713253255764000  2.9056291502661002 12.0012145141377609
  7.6315185759841206  2.9056289064837402 12.0012139190072009
  1.8299756112364798  0.0665590445125400 17.6869454450643424
  8.0901674844017410  0.0665597758596200 17.6869455566513203
  4.4302230229372208 12.1225561519903220 12.0695840799577212
 10.6904137692677406 12.1225582241403806 12.0695831128705606
  4.9600732380712200  6.0279988584668400 13.9293662244575422
 11.2202686169445602  6.0280005649433601 13.9293660384792410
  1.3001256465102000  6.1611181664037193 15.8271617383468008
  7.5603165180445808  6.1611192634243395 15.8271614035858619
  5.0775903322903799  9.3250511823991200 14.0026930418640010
 11.3377840835135402  9.3250519137462007 14.0026941577337993
  4.3127011709713798  3.2304877943166401 15.8624757071030604
 10.5728932945443610  3.2304888913372602 15.8624780504296439
  1.9474989656486401  8.9586291086627412 13.8940512886141203
  8.2076898371830200  8.9586293524451008 13.8940498751790393
  1.1826085522910401  2.8640646235596399 15.7538352928969410
  7.4427987978061205  2.8640666957096999 15.7538333215269617
  1.8076473808633799  0.0801658788271200 21.2867686098918014
  8.0678408816788210  0.0801647818065000 21.2867655970433454
  4.6345965389155799  0.0266713747693400 19.6776803783561824
 10.8947899145271609  0.0266719842252400 19.6776801923778812
  4.7557007237237396  6.1212300090958003 17.8178961508994007
 11.0158957269854998  6.1212319593546809 17.8179002424220023
  1.3224563809605001  6.1747260977389198 19.4269852379352024
  7.5826472524948807  6.1747279261066197 19.4269856842831246
  4.8888723069664195  9.2834879964956407 17.7553144157537446
 11.1490673102281797  9.2834887278427196 17.7553151968626040
  4.5014179442567404  3.1889242427396201 19.6150961882969632
 10.7616106938490201  3.1889236332837201 19.6150980480799610
  2.0026076950353602  8.8674013614682607 17.5899023028852817
  8.2627980657543016  8.8674022147065195 17.5898996991890790
  1.1274974440309800  2.7728382171681401 19.4496862327767843
  7.3876894424000996  2.7728401674270202 19.4496842986024667
