Rb Sb  O 
 1.0000000000000000
    11.5313079999999992    0.0000000000000000    0.0000000000000000
    -4.2617250000000002   10.8676220000000008    0.0000000000000000
     0.0000000000000000    0.0000000000000000   35.9216300000000004
 Rb  Sb  O  
  32   8  30
Cartesian
  9.2689788197987788  3.0530512640246803 13.3857657968052006
  7.9925625421113491  4.4718022539581401 16.9956155297683011
  6.7112625285512495  1.1948362450649801 11.3388758839822010
  7.5215888475201282  8.8711853918137820 15.3251153298157003
  6.0837187086630502  9.5274915173109012 11.5864373406695016
  5.5547896676768600  2.0798148516659603 14.9137498034631992
  4.8121793401472193  6.7485578693074801 17.3525597866707990
  4.6610825273185696  4.7798969467813004 10.7188498709346014
  3.2441953996887003  7.6012436631641203 13.1349767816624006
  2.7491324780725197  4.3979653478895200 15.1971017762010003
  1.6259277936550598  8.7789913333676406 17.1741496230313011
  1.3731452310490497  1.5442002977282601 13.1623458307756991
 -0.1425382685303701  2.2853492961220603 16.5132322224731993
  0.0993782017406799  9.5074869421144008 13.4219536060835001
 -0.7362156767368404  6.3162284341242403 15.4391122634044002
 -2.2978595473671799  6.8651309381575603 11.6715417888165991
  9.6525461261499288  3.4372826690841003 20.5965804067671989
  8.2146570208629495  4.0935842301799799 24.3351926593305024
  6.9429827205418198  1.3146829676901202 18.5689229346461993
  7.1381217526924701  8.4868169460409408 22.5359094644486007
  5.8619288666618603  9.9055581551145995 18.9259850144951010
  5.3750082768080292  2.1674786332051803 22.7870386574275017
  4.5803512826660793  6.6287203841610403 24.5824994316611019
  3.7567944516808289  3.3452341280965405 18.7474114074391025
  3.4238810539412796  7.5135226092569614 21.0076675404871978
  2.2300753791442993  4.0735870449664402 22.4995086399044020
  2.5303332815453503 10.2135855773575805 25.2028034781248991
  1.3947223278512297  0.8822701778461401 20.4824577474735001
 -0.1671735348756700  1.4310266210397800 24.2500989876723985
  0.6183058028243891  9.8317773259755015 20.7246693958048986
 -0.7573774704116600  6.9781189958622800 22.7596329682515979
 -2.2735547404788008  7.7189071892056811 19.4085917543287998
  6.5215928486499788  5.4029397808894801 13.6692858827714012
  4.3245028008048498 10.8335579822221000 15.0999466988377993
  2.8447313364925297  0.0288638606509000 16.9579879815596009
  0.7125209372410597  5.0421638557164403 12.3036144797010003
  6.4552540417205382  5.3997125318603603 20.8216606705352980
  4.3907942982506594 10.8366820975184410 22.2524076985137036
 -1.4183725820486002 10.4759798548225600 23.6181326248127981
  0.7139287702826498  5.4625996567066606 18.9636513580642010
  8.3522294801461801  1.6797715999776399 16.0396371419575985
  8.3439238024192388  5.8062396241863210 14.2225741770909000
  6.5372779398742686  3.7288855281698203 12.6432624717584989
  5.9540747968597296  6.8691438075810600 12.4983384516050009
 10.2485077832812994  0.1249756968280400 14.0663122128605007
  5.5625762955762887  5.0473956376234606 15.3405677373927993
  4.2512141060665396  0.4339878343004400 18.2692000382522011
  4.4632639620258399  9.3710226473652813 16.4013302383461017
  2.7040481902603699  1.5568758573241801 15.7389479537166004
  2.7784148097104797 10.5800912388776815 13.9063111661634000
  2.6554403932572490  4.9401230796809807 12.4382196524207007
  0.2539114944607699  4.0050098505933800 13.9485973905668015
  0.4002080894067497  6.8919816805091800 12.9287377720455989
 -1.0390058822937900  5.1518008821774606 18.1439959153197989
 -0.9570654445001505  9.2544233875461810 16.0023336068515007
  8.0848294286906892  1.4353541081201802 23.4232696362007005
  8.1174563098185288  5.5586381364352997 21.8551572174533995
  6.5941632568048494  3.9373962882630602 19.5203507703684984
  6.2214356769015495  7.1133894823346999 19.8820474589199989
 10.4749392635729173  0.3723682002080000 21.6989002822511985
  4.9094088576399599  5.1462259007676803 22.0151165950596983
  0.5245604903443892 10.3739808104555813 23.4836215667636985
  4.4062571959137991  9.1624725464804015 23.2781074556402992
  2.5310980568166399  1.4581470977694400 22.9929015675782011
  7.6931979456372703 -0.3863434187189000 20.5809555753661009
  2.1204262461480794  5.8679798888829602 17.6524683978919015
 -3.1698244817633201 10.5856937153711215 17.7774271760914004
  1.1737841622431997  3.8203129845600801 19.9190869700456012
  0.5730659502721700  6.9906790326363408 20.1830150397934993
 -1.8769394130781105  9.4387512978125816 21.9732168873950968
