Sr Pd  O 
 1.0000000000000000
    12.9094300000000004    0.0000000000000000    0.0000000000000000
     0.0000000000000000   12.1480440000000005   -3.5808819999999999
     0.0000000000000000    0.0000000000000000   32.2279380000000018
 Sr  Pd  O  
  32  16  48
Cartesian
  4.5956924037557005  8.2552175134114805 10.2983710193036213
  4.2908687460693002  3.9924190668310802 10.2401607386439188
  4.5859398457679008  0.0632333630701200 13.7490694096348598
  1.8808707737649000  6.1527376807068004 11.9452845035236024
  1.9530284200328001  2.1983432064001200 12.1699932282874812
  2.1938322779347001 10.0387972208655594  8.4399579678413605
 11.0285495441625994  6.1527597901468809 11.9453144038883003
 10.9564094547195001  2.1983117429661601 12.1699854219647214
 10.7156048222517999 10.0388377953325207  8.4399830698241818
  8.3137598004639006  8.2552309977403198 10.2983889595224412
  8.6185758415866012  3.9924138431721601 10.2401516432036406
  8.3234567188083997  0.0631880508660000 13.7491417434512595
  4.5230244477198998  8.1028284406209607 13.8963329670319400
  4.5574901730282003  4.0881537927405605 13.7578933474416214
  4.5726489421113996 12.0667082291632806 13.9152166408324813
  1.8687347477162002  6.0108194929616401 15.6931746503716631
  1.8971478867689999  1.9847169371295599 15.6857665574988818
  1.9307387400062002 10.1194712877456006 11.9635651209865213
 11.0406312215110010  6.0107677422942007 15.6932572613194026
 11.0123194214837010  1.9846939773264003 15.6857320736052230
 10.9787441886568011 10.1195074889167209 11.9636015027476414
  8.3864531880767998  8.1028586892505192 13.8963640132788822
  8.3519759733758008  4.0881279174068395 13.7578639125915796
  8.3367744740793004 12.0667202557268407 13.9152424231828817
  4.2610336333020005  8.1828392242986006 17.4212146276985393
  4.5009782395430999  3.8769810639166802 17.2714454913572411
  2.1639208704361002  2.0829234255517202 19.2007775885501211
  1.8593573377642001  9.9667868960054395 15.5629438446781414
 10.7455181661648993  2.0829276773671204 19.2007737570063810
 11.0500800206109009  9.9667947922340403 15.5629637543820625
  8.6483853936825010  8.1828733603022403 17.4212474285776651
  8.4084516313625990  3.8769386672431203 17.2714331731231603
  0.0000029691689000  8.2155315543896403 10.0540924163215415
  0.0000011618487000  4.1438514811566005 10.2939174405514020
  0.0000080038466000 12.1240339984362002  9.9562318170698809
  6.4547245529782007  6.0162013194145203 11.8381948970933415
  6.4547217129035994  2.1011914111580401 11.8791741526131407
  6.4547239075067004 10.1854129357450809  8.5620906088918822
  0.0000273679916000  8.1269006401700405 13.7286050987107000
  0.0000277552745000  4.0317402200916002 13.8275541070462609
  0.0000015491316000  0.0572461995847200 17.6041915029726788
  6.4547151290943008  6.0985852234875608 15.9050706928689820
  6.4547267475813008  2.0426827868408401 15.6167123993050403
  6.4547350096165008 10.0958094491228394 12.1344080343683807
 -0.0000006454715000  8.0361608255120398 17.2989499595286809
  0.0000045183005000  3.9733663175823604 17.5657590781577433
  6.4547134508684003  1.9221908331811202 19.1509176740526783
  6.4547104816995002 10.0080659495174409 15.8078634255382227
  2.0966717767371001  8.3331027538304401 10.1711402407408809
  2.0094359162292004  3.9324393143854803 10.4500561423678402
  2.0661360692036999 12.0947527176199205 10.0063343005140002
  4.3808699355775005  5.9726821665889203 11.8374160910671620
  4.3597517863234003  2.2610489799193201 11.9927958607525209
  4.4304795841244999 10.1787876355083604  8.7034519417236407
 12.9094214797762010  6.2833845487874393 10.5265564940189407
  0.0000135549015000 10.1883454735666810  9.4059078700612613
  8.5285641954401008  5.9726577490204802 11.8374487487110009
  8.5496891866920990  2.2610369533557599 11.9927768462691002
  8.4789569996847991 10.1788020916807209  8.7034815198089603
 10.8127743600504012  8.3331376187167194 10.1711515563280024
 10.9000001512029012  3.9324190271520001 10.4500553545738004
 10.8432992236626013 12.0947708182054807 10.0063589369821599
  6.4547324277305007  8.2251576644552404  8.8088875745669206
  6.4547223583750997  4.0678046042361595 11.2728009872318218
  6.4547272639585005  0.1367231982090000 12.3024185417058796
  2.0726298997765999  8.1328859814488403 13.7126985343961394
  2.0846271494528001  4.0024508000858399 13.8762654536422012
  2.0740694303159000  0.1008383621547600 17.6062640100478198
  4.3888798496096006  6.1265836708574399 15.8565806805894614
  4.3701660816930001  2.0714670911770803 15.5678299223583210
  4.3815959619207003 10.0901925580185612 12.1502459531750002
 12.9090313568016004  6.0750304091324399 13.8590643288670012
  0.0000720346194000  1.9809595471203600 14.0627697483480798
  0.0000783602401000 10.1899352880849605 13.5078288627504026
  8.5205331099428001  6.1266050514148800 15.8566043502194809
  8.5392714057764003  2.0713412374412399 15.5678702430896401
  8.5278535313186001 10.0903334753289613 12.1502095714138818
 10.8368239826688999  8.1330621280868414 13.7126720716781616
 10.8248149854114004  4.0022762326935597 13.8763333471649197
 10.8353639261358996  0.1008145519885200 17.6062678057827426
  6.4547804508101008  8.0320969403527211 12.3535425791669624
  6.4547748997552006  4.0928039425033198 15.3819721917063603
  6.4544399000467001 12.1469245577454004 12.0042335917575400
  2.0238597514625001  8.0425260361267199 17.1570001087402204
  2.0950327955043000  3.8135685171975600 17.4532377392481379
  4.4458415476358999  2.1434101158734400 18.9927315313351031
  4.3586951494779003  9.8911582762399206 15.6909683973538208
  0.0000059383378000  5.9377260484984804 17.1401920931909793
  0.0000029691689000  2.0052809030518799 18.1667178067197810
  0.0000116184870000  9.9960367133877615 17.0509331664003412
  8.4635937452303995  2.1433960241424002 18.9927459980983819
  8.5507356250879010  9.8911877959868413 15.6909828999259187
 10.8855631483510003  8.0425398848968790 17.1570405010891811
 10.8143990118159010  3.8135577054384004 17.4532328692486196
  6.4547187437347002  8.0352091477450802 16.4549007288233398
  6.4547060924933000 11.9400027939584401 15.3367294664597225
