Ba Pd  O 
 1.0000000000000000
    11.7133260000000003    0.0000000000000000    4.1571579999999999
    11.7133260000000003   13.4745299999999997    0.0000000000000000
     0.0000000000000000    0.0000000000000000   20.7857899999999987
 Ba  Pd  O  
  24  12  40
Cartesian
  7.7390922944721003  8.6458897297305004 10.0494424539402996
 15.7869507906357001  8.4950220198401993 10.1690169096448795
 11.7227469109685405  8.5964980315436996 10.2458683772981995
 17.5457475690434421 11.4709730293151999 12.0213271624386984
 13.8296734601568598 11.6779312999818004  8.0551186537052981
 21.4052718531205208 11.6663250135662988 12.0585913447485797
  5.8324170008463003  2.0359214442917999  8.0748245803432201
  1.8301825895154000  1.9908013068602999  7.9423579878206185
  9.8273837619272406  1.9665277495371001 11.9797889228458594
  7.8457564179598203  4.7184099911702999 10.0139353776022801
 15.6319174244970611  4.7854002340089004 14.0689946995549402
 11.8525415735749799  4.6514130110667002  9.9089529206219193
  7.6476326537986807  8.5088832688511999 14.1145399406008192
 15.6350218072868401  8.8100264830382997 14.3864845467572380
 11.7581074508971195  8.5558417364105992 14.2770062896861987
 17.4416185607019010 11.8042066451690992 16.1809999520276371
 13.7405115055116021 11.5557012781910995 12.1193809257520400
 21.5010613247498412 11.6628111256328992 16.0934941872792763
  5.8319237526884411  1.9547918381430001 12.2666364415733202
  1.9161046381890601  2.0178013005837001 12.1698772588327575
  9.6132679109115617  2.0913173930465998 16.4224531345446216
  7.8952280017206000  4.7445589335789000 14.2205694193950585
 15.6315139004163619  4.7309957411715002 18.2517384688964803
 11.6357023742643015  4.7630610802125002 14.3445950273133978
  7.7047373435806206  0.0050922943776000 10.1281655156968000
  3.8530560683266200  0.0267120430173000 10.0027299660711790
  0.0397132118701800 -0.0554883840306000 10.0253232467979991
  5.9227902305332201  6.6192583001471998  7.8662644947854394
 13.6931097835882802  6.6786037683902997 12.0274351499733605
  9.7057846792564799  6.5892510608184001  7.7788867289318997
  7.8238598777351998  0.0647351454978000 14.2877693380345185
  3.8335326479495997  0.0905481678735000 14.3029267933899007
  0.0687922464647400  0.1595807452242000 14.3911358661286979
  5.9002067037387000  6.7135533305777999 12.1605480558502173
 13.7720832530122212  6.7287016666944002 16.1599784927406205
  9.7461919056921609  6.7452761470662006 12.1531442821669593
 19.5051710151120012 11.5866470185343999 10.1247974694283585
 15.3793134583775402 11.4148408322412003 10.0983821807794989
 11.7997371971674205 11.2947476014178996  9.9524818984662193
 17.5596943920451203  8.6442611980346999 12.1420347346993402
 13.6481931609091198  8.8739996438646003 12.1087551051892994
  7.7931625300204805 -0.0597343431789000 12.1603720833520796
  3.7214638787122203  0.0521426582316000  7.9527902095352996
  0.0961066684974000 -0.0645436724265000  8.0044381169535992
  5.9055618021193803  4.6511543000906999  8.0910537094594197
 13.5973929345801601  4.6563366043286996 12.1167554310455579
  9.7727974372353010  4.7464852523876999 12.0320990239619796
  7.6372982205354010  1.9921246404516002 10.0204644852423392
  3.9770651678218800  2.0841272490932998  9.9674642127550594
 11.6657285483992208  2.0884715723106000 10.2286313452248994
  5.9157381054816591  6.7702219486910993 10.0384475608903205
 13.6503477100935626  6.8047070438294996 10.0226604208126808
  9.7129698676914007  6.7317878730456000 10.0515454770293378
 19.5408315333194409 11.3385690636480003 14.2207534567797218
 15.6217357330048205 11.5051785279560992 14.1452875698877989
 17.8099786510836005  8.7974360169516004 16.2303038459076419
 13.6695254702203215  8.6240421267884990 16.2037401882897605
  9.7486761850035002  8.8119647941788006 12.1954106064119188
  7.8244339478424605 -0.0670985780598000 16.3061472027459580
  3.8453228133681598 -0.0324516538161000 12.1330484141086394
  0.0579042414147000  0.0304444878273000 12.1196817377049193
  5.7833039619943802  4.6532574047330995 12.2042014158618795
 13.8371853332539203  4.7443153140765002 16.3077676629343600
  9.7213335338551801  4.6313940365909998 16.0453541729245401
  7.8792988154266812  2.0814303219138002 14.2114542269063584
  3.8918778960882001  2.0737261246409999 14.1413731899149990
 11.7458365705795202  1.9655575833771000 14.2361871552841990
  6.0168641684365802  6.6968140567040999 14.2098804931738787
 13.5573605345764818  6.7963544521730999 14.1261262309478806
  9.6661071930305997  6.7200989877611992 14.2151735945973776
  3.8484172398308401  0.0364884882588000 16.1831845385566382
  5.9105992350989407  6.6991051310399996  5.9885323893900191
  0.1751549860744800 -0.0394131349953000 16.1599523026452196
  9.6672976183519790  6.8714302214834992  6.0130281934755399
 11.6951583971074804  1.9863080900864998 18.1942974370904409
  9.7352343234856811  4.7762363409011996  8.1933069090696193
