Ca Ge  O 
 1.0000000000000000
     9.4853860000000001    0.0000000000000000    0.0000000000000000
     0.0000000000000000   14.2280789999999993   -4.7426930000000000
     0.0000000000000000    0.0000000000000000   37.9415440000000004
 Ca  Ge  O  
  54  18  18
Cartesian
  9.4785875392922190  7.0983463557053703 13.7028857453164488
  4.7495167866884005  7.0983463557053703 13.7028386978018926
  9.4589908266700800  2.4944015033973899 13.6970716779677506
  4.7690478604394198  2.4943780270670399 13.6970662238708005
  9.3334137065622205 11.6910920024708691  9.1142937490803497
  4.8946141672072399 11.6911251538949390  9.1143627552634996
  2.3713357815138201  4.7686385660335198 13.9828855660544011
  7.1140298249062797  4.6750792715148002 13.4231123407423212
  2.3713153879339202 14.1568518137180988  9.0126522891395382
  7.1140486059705603  0.0616171148829300 14.0111514946381703
  2.3713343587059201  6.7665532446569703 11.3762848464019690
  7.1140897725457997  7.1094133823939396 11.1362666864849018
  2.3713000216086000 11.9620506852621293 11.4273835693225685
  7.1140336190606801 11.5796076049047887 11.3523986525229112
  0.0013495807200800  7.1419938336536690 18.4687996342214689
  4.7413491105115204  7.1419899920723386 18.4688430298624198
  0.0000245671497400  2.3713761418312500 18.4964156715834527
  4.7426575246563605  2.3713569339245999 18.4964277654506013
  9.4840503627973405 11.8289370465618280 13.7815824833656286
  4.7440101406999595 11.8289844260649009 13.7815325428083391
  2.3713390065450599  9.4696597517082299 13.6856632248101100
  7.1140247027978400  9.4172806439584207 13.7402855314950596
  2.3713394808143602  4.7710423999805700 18.5622182604658121
  7.1140525898326805  4.7478985798367992 18.4988512815735966
  2.3713256321507998 14.2228937188892388 13.7512996771566804
  7.1140552457407606 14.1998253075641685 13.6879329828260516
  2.3713493456157999  7.2230395326918897 16.1435136943681670
  7.1140248925055607  7.0323347563425003 16.0762003206306581
  2.3713233556581601  2.3217426264860701 16.1099347639511521
  7.1140494596552992  2.5494690066742498 16.1374333722344510
  2.3713873820136602 11.9387772473186704 16.1742128615955920
  7.1140139843116605 11.7479417149232699 16.1070398241439499
  0.1518634960603600  7.2794330929315496 23.1359735953361465
  4.5908087309442998  7.2794370767936689 23.1359263581138705
  0.0264900271899200  2.2481572783907100 23.2958268217320281
  4.7162048698872798  2.2481346557450999 23.2958313272903794
  0.0068111711250200 11.8725038513022003 18.5475471665126825
  4.7358941598767803 11.8725024284942986 18.5475852029105397
  2.3713590207095203  9.5537289175339506 18.5100236909006277
  7.1140370337996401  9.5013263334537896 18.5650222354212708
  2.3713639531102397  4.6809687002552698 22.9814932709861104
  7.1140189167123795  4.8136840950243602 23.2376463570507603
  2.3713572184861800  0.0675661592744100 23.5700460111069283
  7.1140524001249599 14.2021275530271591 18.2674410620245986
  2.3713366351985599  7.3914654138199198 20.8980324570828806
  7.1140416816387804  7.0085522377324194 20.8229409245445787
  2.3713664193106001  2.1931000193307302 20.8554085945647714
  7.1140265050211804  2.4207935326564201 20.8829454763805806
  2.3713244939044800 11.8614759518308794 21.1140219051962426
  7.1140620752186798 12.2042335051182604 20.8742982190875388
  2.3713508632775597  9.5266786360199394  9.4389422302588990
  7.1140273587059202  9.4439207299548595 22.8114794413878208
  2.3713340741443401  3.0646294737317397 11.1419698696712608
  7.1140491750937205  1.6780289046093599 25.8507527709720826
  0.0734770249872400  9.5165313123579303 11.4064825212715704
  4.6692183463592603  9.5165424102595502 11.4063964888205494
  0.0896126151118400  4.8211750363370696 11.7023978237519906
  4.6530786775186801  4.8211628001891302 11.7023480254754890
  0.0335345388105400 14.2222094905701297 11.2873906544257689
  4.7091587457510400 14.2221592654512587 11.2873588309557427
  0.0000149869098800  9.4858429110436209 16.1254207474155393
  4.7426800050211799  9.4858574236841982 16.1254413307031612
  0.0244888953055000  4.7463347716739097 16.2537772279021908
  4.7181778301752804  4.7463441622060500 16.2538139363460097
  9.4610282875828808 14.2243308971490308 15.9961803238075504
  4.7670454954548198 14.2243274824100681 15.9961723560833082
  9.4116958383893401  9.4542220014316509 20.8432614195454526
  4.8163761424250202  9.4542218591508593 20.8432383226305369
  9.4518651201452997  4.7480249251783198 20.9626571507317614
  4.7761877001893405  4.7480169574540794 20.9627876696431201
  9.3960998718742808 14.1494357121009280 20.5483065123975308
  4.8320128960998803 14.1494186384061305 20.5482879210409699
  2.3713414727454198  7.1315104427656806 13.8003100974955206
  7.1140269792904807  7.1105642917042493 13.6727946861854885
  2.3713634788409399  2.3207994471291595 13.7130743304075615
  7.1141015344244405  2.3652335955653698 13.9048561723372508
  2.3713215534348202 11.7429135118046695  9.0920078346733497
  7.1140542972021601 12.0686171473218593  9.1171459572236202
  2.3713367300524197  7.1644404779264388 18.5255554887793998
  7.1140277381213597  7.0894165287633903 18.4659405491733501
  2.3713418521608602  2.3650871886324603 18.4799528830687798
  7.1140730782664399  2.3774991956289000 18.5128339736377789
  2.3713779914815198 11.8814351010520802 13.7846557958565601
  7.1140562891332202 11.8064659299931787 13.7249133252357396
  2.3713677472646397  6.9021747245618092 23.1333807650730492
  7.1140209086434405  7.2276438813370802 23.1582487438300433
  2.3713749561579998  2.3773313042966997 23.0880061406149402
  7.1140795283289204  2.4218225073297002 23.2800155843817009
  2.3713822599052201 11.8606330804309188 18.5777994772056410
  7.1140176836122002 11.8396311552998093 18.4504745324464920
