Zn  O 
 1.0000000000000000
    10.2027040000000007    0.0000000000000000   -1.5765330000000000
     7.0872219999999997    4.6989479999999997   -1.5765330000000000
     0.0000000000000000    0.0000000000000000   39.1328490000000002
 Zn  O  
  24  24
Cartesian
  8.0953922674066199  4.2925074648656398 12.9302369573227214
  3.6091393065912802  1.2468201780254398 15.9082988331875992
  6.0219702409128599  2.7952606123386001 17.5200657251822989
  8.8619024793154804  0.3563555291604000 15.7436763773522106
 11.2433137071455214  1.9170728579236800 17.3720799643696218
 13.5399511371042784  3.4163442991859996 12.3464855890235992
  8.5273346389138993  1.2606054347835598 12.7300737163410300
 10.8408003053705801  2.5919255729665198 14.0829893021273396
 13.1698409639760996  4.1524997717737202 15.7468314662830480
  6.4505927800312799  2.1420863059358397 14.2918226370851400
  8.8509492400818992  3.6891706238561999 15.9268570363736401
  4.5934913375547000  0.3744139152507600 12.9390279962918093
  8.3894407181238808  4.3657003934402399 19.1821350437098239
  3.6466228265527798  1.2045315725941199 22.4229243498699624
  5.7738568428803001  2.8175503541134796 23.7755002799609407
  8.8857039333825405  0.3745266900027600 22.2131708114952282
 11.2361955593743410  1.3962182957900400 23.5657943922599102
 13.6133612729395619  3.4644305136491997 19.0022158299642925
  8.4504005020211395  1.0233960551953201 18.9849916131126335
 10.8163053244205205  2.6431897329515999 20.5970148431787621
 13.3521556070784388  4.3956537434872800 21.9983975501446842
  6.4756063156211798  2.1567216963661200 20.7613523148242400
  8.9233728748780212  3.7381935266137201 22.5819424880723112
  4.1116948662475803  0.5706895370845200 19.1334337517439899
 10.3881275997423810  1.2658746471128399 12.7243428842848498
 12.7578491188506398  2.9447177488900800 14.2547035846735781
 15.1029078150095994  4.4928329690121602 15.9370312621035595
  6.9013105349491601  3.3636880758559200 15.7633848585042884
  2.1727740916684000  0.2249053722081600 18.9792003957454511
  4.4866024316996995  1.7903162451812398 14.1095952673922405
  7.5431298849066808  0.3828324095191200 14.2800701321468395
  9.9563837797795802  2.0010654726656396 15.8847446744935219
 12.3369462954477207  3.5165038794693597 10.8611670397595397
  7.2515100145977804  2.6495515916593200 12.5315197514539207
  9.6793613882741010  4.2693270844868403 14.1096231629635813
  4.9465896574802999  1.1483776403307600 17.3524691665296302
 10.3861269985123599  1.3729452991461599 19.1529933146626199
 12.7565223561333401  2.9275382540336397 20.8195342595492683
 15.1940895470142010  4.5336060227450403 22.3973857639627170
  6.9649319532501002  3.3820333797111597 22.2247423928449521
  2.2125711355587199  0.1862621636457600 25.6437298112150422
  4.5348053409586004  1.7888833949676000 20.6207310116471980
  7.5845752001276008  0.4347502401604799 20.7418722965136908
  9.9737706056770996  2.0465785432040398 22.3954772131723523
 12.3168222371868410  3.5681703163927199 17.5262879421464106
  7.3236901058693000  2.7174901095908397 18.9916751074957233
  9.6626358827631798  4.2750681651742797 20.6741066385428418
  5.0447947328463600  1.1055682035031198 23.7810836809013999
