Na Sb  O 
 1.0000000000000000
    10.4222500000000000    0.0000000000000000    0.7802110000000000
     3.1806429999999999   10.8374590000000008    0.7609280000000000
     0.0000000000000000    0.0000000000000000   30.8876840000000001
 Na  Sb  O  
   8  16  28
Cartesian
  9.2623658715058390  6.6876971112739207 18.2258412068574387
  9.1142149986890306  9.6112894896883905 19.8233112031984433
  2.2581117964478703  7.1997584874313114 18.6307281589913991
  2.3830534324293202  4.3029615096451606 17.0182655993408396
 11.3434034556157393  3.6373783149126204 13.7992135196618779
 11.2160560391955304  6.5333481778278903 15.4103379461357388
  4.3387965439023901  4.1491128333065701 14.2012323757970513
  4.4885591829522200  1.2251534985303600 12.6035657231099520
  5.6965182842087199  5.2810237607148602 17.4907314318827858
  3.3414684571796696  1.3326843923472100 19.3173248276810483
  5.9719312270945206  8.6396129945852618 19.4369000721670915
  5.1121950822652700  1.7972504960625100 16.6521094960801399
  9.6050789392437395  3.2695387002641203 16.7961571460476300
 11.5098064790845402  9.7511584941645211 17.2416110631938295
 12.5891696369869308 10.4747943803985901 20.8158118900263887
 10.5116844257752895  4.2224585883267700 20.2364447530576577
  7.6301283624703293  2.2092952389752902 12.9892635684577993
  8.4929358500518397  9.0334596930944198 15.7812426632798903
  7.9092867011929604  5.5501414933454809 14.9256641426435408
 10.2656452561542100  9.5002191901367308 13.1084895413635003
  1.0162384955901600  0.3615226765465800 11.6108064142925702
  3.1037216838140798  6.6051176244365397 12.1967470473500690
  4.0044170848069998  7.5635601732310009 15.6309797978995189
  2.0989413952515603  1.0819405960797801 15.1883585008318711
  3.8070002078820897  6.3153084732101705 17.1779843921317195
  3.1263001696676698  1.2359709082312103 17.2945286929000908
  7.5316308155098906  7.6965653814240698 19.6269740173429668
  9.6633312201487911  9.0905313778072721 17.6216209591653623
  6.8589814655652797 10.2147598472796410 20.2758191918419790
  4.6747479462626202  3.7394743314155607 16.5501351142908710
  7.5974271002021903  4.4767953273764700 16.6851912163896188
  5.1300917838366802  1.8217417445328403 18.8754898350480822
  3.7909923594388601  9.5171261680496819 20.1421934833611687
 12.3204339594633190  7.9831241619471607 16.9856113696306004
 11.6442782244480014  9.4436371418215010 19.4889761678238713
  9.6289662009920196  6.0100932237677602 20.6597714370714343
  1.8613039187851399  4.8607193567998204 19.2590953317438576
 10.2770232977433604  4.5140294768881803 18.1832117123756518
  6.0704877099187895  3.1377589919347706 12.8012302128980320
  8.4722743380101804  9.0186490048758401 13.5538058095162697
  9.7931311295740215  4.5261091254387598 15.2439364324600888
 11.7429325322434099  5.9826986200313303 13.1723695886105201
  8.9245938455781797  7.1056586733023410 15.8852731077916811
  6.7431473735578003  0.6243145843589001 12.1569275029670312
  9.8126742094650901  1.3203073639216703 12.2893135038714103
 10.4783515382970300  9.6047436644523909 15.1324505350295198
  5.9959823937520893  6.3594982122826700 15.7494638495991310
  3.9677385045936400  4.8293665879128209 11.7683586563417890
  3.3191279009457402  6.3305952510026202 14.2491467630360393
  1.2772653369758098  2.8586851024700302 15.4486928641757508
  3.9389028697037500  1.7439232618087503 14.8050541312726587
  1.9623707252783702  1.3912706119553100 12.9356340087512294
