Rb Ti  O 
 1.0000000000000000
    12.3892749999999996    0.0000000000000000   -1.3614370000000000
     6.8287250000000004    9.5874129999999997    5.8516700000000004
     0.0000000000000000    0.0000000000000000   40.5938459999999992
 Rb  Ti  O  
  32   8  30
Cartesian
 11.3612500567265009  9.5109734190181694 22.6926632364277516
 17.1404343958657499  8.4157931652445193 18.2741558629664098
 10.7612685079712502  5.1600772159063597 16.4748230593505696
  4.7927881844569997  4.9845134677916594 20.7617495673242374
 10.5562179904760001  1.3027687416581200 16.2492947785782782
  4.8727155026195001  1.3219160517828099 20.2297589402987334
 11.0593117242587500  3.3234120014122501 19.9305347988007995
  4.7096902490337502  4.4304821812919801 17.1613009812477486
  8.0540157021322507  5.8439796947781693 18.5295562088696215
 14.2580292936432489  5.9952241069511993 20.9524759337386293
  8.0907507681192499  7.9483544342195405 21.9020451396584477
 13.4629313082419984  7.5663055177084093 17.3878649816185700
  8.0316221847112494  3.9843450520927899 21.8788505387953620
 14.2101014859782495  4.0328112464162595 17.8946520314842310
  7.4238562086757485  0.2429853125546000 15.0593122303882083
  1.6044948061719999  0.3965542888836100 19.3615800343763134
 11.7986291211645007  9.3377248393947099 30.0286208960379710
 17.6402994482032511  9.1862453438549192 25.7139583471937527
 11.1895339486880001  5.6003081152010292 23.2204296206344480
  4.9888767251475006  5.5418480015663594 27.1787196381345204
 11.1386585730139984  1.6408427833397599 23.1749421746766586
  5.7515479921269996  2.0012344050027999 27.6734989786400369
 11.1588399973967505  3.7357000978960300 26.5765320681243011
  4.9624873429410004  3.5990300874690799 24.1204912631782413
  8.1602765525647492  6.2700053077272599 25.1571905543551502
 14.5207656359787496  5.0997114121896798 27.9360491171329457
  8.6574806623675009  8.3145989797708193 28.8294694349610197
 14.3490302644922494  8.2649404947666696 24.8784803263707630
  8.4267015100984999  4.4462230835777703 28.6050844588903317
 14.4284818121267513  4.6133912300024997 24.3171328170632286
  7.8764289673294998  0.0651891353228500 22.4163720604697865
  2.0583127489960003  1.1623465054053601 26.7803598043672970
 11.1187781935030010  6.8526652805638495 19.6170826775069891
 17.4742279351710010  7.3728473425998606 22.2358954842844803
  7.8310247851272496  2.3117785737514600 18.6363790737106108
 13.8777780638474990  2.5323772769510602 14.7092284762730596
 11.3971540631897508  7.2640474623932603 26.4685984055653307
  5.3286280401280006  7.0710003955541492 30.3634247122035887
  8.0968881307497504  2.7415293760216999 25.4761522114131296
  1.7562118662212503  2.2331639922564501 22.8381621183628596
 12.2565424184217502  8.0396799119958189 20.5026266458380881
  6.1912156112945000  8.5352779296172301 24.5312688289240732
 12.2421578858819995  5.5446887520382599 18.9336472561147566
  6.2104764544739997  6.1240628308173592 22.8087946018802405
 10.2901744775772510  7.4367100593341604 18.1227442680449116
 16.5851198668555000  8.3382369382705797 20.9222894727219781
  9.0767974555134998  3.2748100493207000 17.6756782203413181
  2.9739351045857503  3.0731345984039802 21.7329672109160690
  9.8284069327892496  6.0767633287818601 20.7530921865883080
 15.8975339947420018  6.3021162383398996 17.4158226281665591
  8.6766205538352494  1.4970601588304999 20.0905277191668681
  2.8033060846747500  2.1077636023144799 17.1710652128232333
  6.5849004330040000  3.5201375668711998 19.2869289776177197
 12.5184965756135007  3.2091995471964996 15.5731407004566211
  6.9874438794080005  1.0015031753367301 17.6389719487579306
 12.2452464068739992  8.5808419181514690 27.4561215055473298
 12.6407333885227509  6.0490867684299801 25.8253310681205512
  6.6401666372400001  6.4431795848999700 29.4295365188825109
 10.5560310292890005  8.0709696806850104 25.0091762366407337
 16.3944050374509978  7.4080559663527996 27.9187265288645818
  9.3952567039980011  3.5109485108813501 24.3474637670944318
  3.3111511404087501  3.2571437068821196 27.6528627001753478
 10.1428000577097510  6.3124911614437202 27.4321116106305070
 16.2567714114134994  6.5461680547166194 23.3531705826468396
  8.9074013843720010  2.1665762451251602 26.9843156029999776
  2.6411689341817497  1.2527203365672599 24.1438874687088898
  6.9708892671204996  4.0530283200834898 26.1470203073022525
 13.0201715718997502  3.4725497713267903 22.2771330424913785
  6.9606300747152501  1.5526537318523002 24.5903420803577504
 13.0475538315669990  1.0826514224652499 20.5232458451363513
