Ba  O 
 1.0000000000000000
     8.8542330000000007    0.0000000000000000    0.4359670000000000
     1.1576620000000000   13.8975890000000000    1.9151800000000001
     0.0000000000000000    0.0000000000000000   25.4266480000000001
 Ba  O  
  20  64
Cartesian
  4.9862349785756104  6.8023183591684804 14.1435198900735095
  5.5644328607033202 13.7511623345853202 15.1012284835975610
  0.5538204803199600  6.7963204377078599 13.9261776670417596
  1.1325580290009600 13.7435232468396897 14.8841495545438605
  1.4315717689269902  0.2241228044298600 16.4477870338385692
  2.0104074854185798  7.1745864048687595 17.4052014892300626
  5.8586319100450801  0.2247632053309800 16.6651437259561597
  6.4372098712143808  7.1740213289000190 17.6221587771331016
  3.2866197968338899  3.6265074734121199 15.3929024202863491
  3.8654386978974098 10.5755372595938901 16.3499738136586110
  7.7049050507543804  3.6209510783540297 15.6075336797428808
  8.2829534241807199 10.5698571759937003 16.5658898174366804
  1.7338725094141501  2.9781385286148603 11.7715661703659702
  2.3126765723344400  9.9268700725366887 12.7292799163834189
  6.1659123027414999  2.9887390536005003 11.9383873478099005
  6.7451458679246699  9.9366317390502914 12.8952541478563099
  3.5349011926888103  6.4336932884727700 10.6636605247001697
  4.1107741943710003 13.3817748421570695 11.6211539768100209
  7.9737304588402003  6.4402105628343200 10.8752325026473997
  8.5509939394476309 13.3872973270979987 11.8369961460326891
  2.6235458911137606  2.4952020360451197 17.8439578049638428
  3.2023432221341297  9.4439781912276395 18.8015686124810699
  7.0506874541933300  2.4951914738774801 18.0619340073489099
  7.6294635523485503  9.4439965360451215 19.0195491600075322
  4.2925991806767705  5.8446377247927197 16.6524907516550691
  4.8714578378134998 12.7934379228042108 17.6100699077070821
  8.7197430302096706  5.8446259118420700 16.8704534232615906
  9.2985487007505920 12.7933884473873700 17.8280633289200701
  1.0179540702554402  2.1339204513770098 14.3310066103055416
  1.6031477517501600  9.1092462826333502 15.2869976625007808
  5.4458958620646412  2.1456796183575801 14.5435702504434818
  6.0238342783436494  9.0826968845113090 15.5065283591038519
  1.0085479367018000  4.9988329598187402 16.1017192600751997
  1.5873279836377301 11.9476524754789395 17.0593591693875126
  5.4356889463856808  4.9988465794559600 16.3197286718876775
  6.0145331029334397 11.9476523365030509 17.2773131968235418
  2.1687347557885603  1.2576128411381602 13.9431537208240819
  2.7465137994652498  8.2070644191460786 14.9008588558944304
  6.5953781603971411  1.2580474187461901 14.1611867791366794
  7.1747156156102996  8.2065165761876990 15.1187259243013408
  3.6836567345607802  1.7481625719379901 17.4762754010939219
  4.2624602567907806  8.6969822265740806 18.4338287629349828
  8.1107362116549506  1.7481592365166299 17.6942960434920700
  8.6896411840780203  8.6969010646543197 18.6519881638570197
  2.7654894255433704  5.3287824300863500 13.2067154601294892
  3.3443422210742506 12.2775898548441198 14.1642912255555107
  7.1927118333704101  5.3287613057510699 13.4246649903079689
  7.7715270844122903 12.2775559447269611 14.3822471139770691
  3.9378115087077101  1.5965633628733999 11.0369917270687719
  4.5166327362273604  8.5453670352821405 11.9944690694367608
  8.3650056534603987  1.5965675321500998 11.2549735052191586
  8.9438386974644910  8.5452643320994301 12.2125810548434117
  1.2982034456134401  4.8005680094822800  9.6542554882051199
  1.8770065141904402 11.7493907215879503 10.6118661921999404
  5.7250649675842906  4.8007075412758402  9.8721632158393913
  6.3038245727013607 11.7494878657350608 10.8297541617994799
  0.7007945829707601  0.8420365726925200 10.4567215882065998
  1.2796325975327101  7.7908334352826500 11.4143295396024307
  5.1278720488166609  0.8418889802973401 10.6746539374629794
  5.7067133823159404  7.7906884834293804 11.6322649479962621
  2.3969622195218201  4.1472426285440598  9.2662425259597399
  2.9758075035903704 11.0960268443281986 10.2238244805021914
  6.8249734339563002  4.1470778031385196  9.4840822603941799
  7.4033715453982607 11.0959434587941992 10.4416787667778195
  3.9668777946755598  4.5569680120206995 12.7649495484956805
  4.5457335687158897 11.5057697387669791 13.7225353779171897
  8.3940301717305097  4.5570362491826897 12.9828974079111106
  8.9728607768548905 11.5058196311114909 13.9404736971340899
  2.0235117271571998 13.1502843698947505 20.9768463555072593
  8.5389802953795702  7.4089390855856294  8.3379040065572099
  3.0148821269399502 12.4678760603597887 20.5857581104949112
  7.5479750318199903  8.1370568432933705  8.6577111502466710
  1.4446503600553500  6.2015239189878004 20.0192609384208886
  7.9620677582930801  0.4587735884307800  7.3803024560043191
  2.4360595497789101  5.5190997662013794 19.6281305310646523
  6.9727572557513415  1.1848342250147399  7.6770050295763808
  6.4490373470549809 13.1537437577486305 21.1953389060377972
  3.5349037780977599  0.4588009666811100  7.1623276525022996
  7.4415480491104704 12.4685086786110695 20.8039730963334293
  2.5457345849513300  1.1847244340616401  7.4589565483909102
  5.8718352417234811  6.2014466483929604 20.2372318800786815
  4.1136892372916707  7.4076960852254699  8.1198187659806305
  6.8631593487378613  5.5190937902381094 19.8461536008873978
  3.1247047900601297  8.1334085872049808  8.4164338908788707
