Na Sn  O 
 1.0000000000000000
    12.8698359999999994    0.0000000000000000    0.0000000000000000
     0.0000000000000000   11.2399290000000001    0.0000000000000000
     0.0000000000000000    0.0000000000000000   38.9362569999999977
 Na  Sn  O  
  64   8  46
Cartesian
  9.3973933742499991  5.6119370551074903 16.5388857474402506
  9.2170502928573992 11.2377167571742209 13.2967488974530799
  4.8701160816319193  5.6251814006460590 17.1467480789348592
  4.6905392702747601  0.0031640400135000 13.6826453618549380
 11.2553144303082000  5.6035063215624596 18.4676785083380786
 11.2130466714252002 11.2120466701261510 15.1603203129753474
  2.9789916208838796  5.6140553321268296 19.1273984830807073
  3.0727712844519601  0.0171569648234700 15.8771952087308499
  1.1482892383787999  7.4774263852481404 17.8398017726577578
  1.3222953412233600  1.9270244570376600 14.6673296736949901
  7.6043086214843996  7.4625987833106304 17.8966790781582183
  7.4821608793100394  1.8584531345866500 14.6237857000416085
  9.7355210310976794  7.3958220279237601 13.6034762704968397
  9.3838584251255188  1.6745254092150299 16.8637138076381703
  4.5099395643523197  7.7650750514388607 13.3744964260681094
  4.8474315799999594  2.2832819870422498 16.5469622952297613
 11.2845018026742387  9.0070152703932607 19.1533701345874192
 11.2582744925881997  3.3280574410403099 15.8309728099584390
  2.9847292511693997  1.7068772968557300 18.8164730028072071
  2.9560080242632800  7.2070926048833401 15.6173147720217784
  2.9866206022679598  9.5460206704223403 18.8119972800650572
  3.0020508921401601  4.0419128625827394 15.5152172870040896
 11.2762378235819192  2.2251771740767499 19.1328721420897665
 11.2816934757606795  7.9007264949604501 15.9188457122063198
  7.5978110273830790  3.7595050380868500 17.8578136851459597
  7.5454252608335999  9.4931828881862401 14.7374978705223985
  1.1633258399677600  3.7585457101466999 17.7992683503956179
  1.2898656710738399  9.3201513747857998 14.6988217077191603
  4.9155126263448796  3.4028311811120999 13.4337064027254378
  4.8260030456632395  8.9710730122320896 16.5525387459572997
  9.4168821669047986  3.7891895781765603 13.6357793467543189
  9.3945634260119597  9.5393171767667386 16.9161936522730478
  9.5062322903183993  5.6023214082472794 23.0572438574298175
  9.4149533645834786  0.0062201767086000 19.8098066147772407
  4.7773949620748395  5.6455956968937304 23.7757513504413289
  4.8193440638184795  0.0164480625014400 20.4695429427478111
 11.1196914550484003  5.6171113564226403 25.2525089633468198
 11.3048058994396392 11.2354134709235396 21.7910578053685988
  2.7840553037525200  5.6173886454710704 25.6323823781533484
  2.9605817065809599  0.0087437655676800 22.3965633252269996
  1.1080904343311599  7.3842417538736402 24.2084289489035456
  1.1623361495793598  1.8606575094621300 21.0788062007692787
  7.7254480120081599  7.5384697652514001 24.2368886272325597
  7.5982374050497601  1.8627673565347198 21.1361752711956505
  9.4222253367169184  7.3141420258772101 20.1251988624537788
  9.4363884625365593  1.5786600547740302 23.4205923354029792
  4.8483485558149599  7.8524440311494699 19.7837785056978781
  4.8226301190443595  2.2935466274029199 23.1058639509082901
 10.9421157744908797  9.0962633414340903 25.5619922446610417
 11.2824261555241598  3.3361063541972098 22.3912259431174405
  2.9833725130582800  1.8304752653162999 25.2988477815276553
  2.9567226862563598  7.3192117958526604 22.0226923237995891
  3.2998053586624003  9.4651030727598595 25.3336723697884594
  2.9484046538528399  3.9445124710382102 22.0751464705048512
 11.3483276951424799  2.2115080716212701 25.4988173889533982
 11.2600197710481602  7.8895605246932696 22.3848213182035103
  7.7556057700086001  3.6930743601138900 24.2690764521693154
  7.5835258955181590  9.3823104301415992 21.0952470352875281
  1.0485359117329598  3.7578043244298600 24.3134240701671764
  1.1681619382414798  9.3965987402856896 21.0411704147530791
  4.8400802009783996  3.3955641174164399 19.8043687771246191
  4.8439447553324797  8.9588065405165214 23.0165944051218219
  9.4202320565172393  3.9134124866895301 20.1205039285847178
  9.3913435217431189  9.6531815915118901 23.3182927712114569
  6.6422783420123190  5.7784826798777695 14.5636447574794108
  6.4614572749106793  0.0011196093276900 17.8921834979250001
  0.0028377988380000  5.6140591537026898 14.4353836652080005
  0.0530710853164800  0.0034172756138700 17.7636486837668777
  6.4871157382455200  5.6169954727546498 21.1717081099712807
  6.4375789672913593  0.0046591753690800 24.4974741995558993
  0.0260772477982800  5.6192726823700498 21.0471358386880496
  0.2086627694155200 11.0777999929309807 24.3728069238055873
  7.0800958772143590  5.6421305391823209 16.5436464835836397
  6.9405074480862394 11.2073791772096101 13.4185095816183395
  0.6214588981647200  5.6117685685717804 19.1461353886742494
  0.6339307988356000  0.0057147171014700 15.8439658389193401
  3.5923408492899198  7.4768624780102098 17.8484098003553200
  3.6257226299067193  1.9342852263730799 14.6077949686542787
  4.5650070186291201  5.6969364329863206 14.5777739464195690
  4.4373140502174397 11.2397367972140998 17.8670594887331795
 10.8360985699654790  5.5918844597750406 14.5791051770464009
 10.8998940896207586 11.2296616620563707 17.8103663517283302
 10.0666225296795204  7.4941743290552996 17.8552645284001699
  9.9485944220087585  1.8031857292979101 14.5992145856991904
  7.0595217712896803  1.6482950117063098 16.9663326491370903
  0.6504940203708800  1.6409752327436402 18.7215783359719481
  0.6024236385305599  7.2410353920746999 15.4769670868524294
  0.6497550343877601  9.5984016619438801 18.7105975327728089
  0.6215906852853600  3.9910791596873398 15.4605912758833686
 10.0567597308609198  3.7239604486136999 17.8308701846645299
  9.9220273482523194  9.3569529255190194 14.6121850316310287
  3.6059585514598798  3.7703710146490197 17.8279055780565479
  3.5744081485058801  9.3231283823807392 14.6193185432760000
  7.1205891431096804  3.9972153741263101 13.7702250740876089
  7.0547527248615198  9.5633340950574901 17.0028007368058596
  7.0686706803053596  5.6144182694342399 23.0914587039059960
  7.0557500084531597  0.0099391320168300 19.7917783490611008
  0.5012978725736800  5.6579103879047103 25.5128165307951775
  0.6438786672701600 11.2190710637547006 22.3908054315418390
  3.4851273935083196  7.5026154033350103 24.3249967044727171
  3.6211979816642001  1.8961922077977602 21.1048837588950313
  4.4646222978291199  5.6309687276888702 21.1253759109541299
  4.4025747592993598  0.0249103802469600 24.3542646994970511
 10.8705607733144802  5.6206021411721698 21.0702016773348504
 10.9985833382261191 11.1638710980399605 24.3570611014747875
 10.0086467498634395  7.5364296057386104 24.3160954867599486
 10.0412048609762383  1.8510388278210901 21.1081178044014486
  7.0850408543006393  7.2611922939482705 20.2256135224439291
  7.0571180720199598  1.6280543723616903 23.4718363432406782
  0.6855569876643599  1.6191560577702599 25.1665797590483784
  0.6189678127085599  7.2966565179290708 21.9420822015699208
  0.6244169012709601  3.9703298011561801 21.9716258652938095
 10.0585751499270799  3.6860163590976303 24.3288992855118273
 10.0277636042578404  9.3827667712589999 21.0874632881506585
  3.5171936194892002  3.8150216326015198 24.3364607066212280
  3.6305210195609599  9.3646740823462800 21.0818381671018678
  7.0855120189965994  3.9803024281614299 20.2141210968278102
  7.0369155182605994  9.6161922215650790 23.4553051766061884
