Ba Na  O 
 1.0000000000000000
    34.3321049999999985    0.0000000000000000  -13.8340150000000008
     4.0643380000000002    8.7467720000000000    0.4319300000000000
     0.0000000000000000    0.0000000000000000   48.2730310000000031
 Ba  Na  O  
  64  32  28
Cartesian
 29.1519730811272808  4.0386370642399205  6.4372056572395291
 31.1446253682486471  8.4157998329217989 11.4822032916374415
 13.1213306763822501  6.0037742420122004 11.1578723443375996
 10.9309645451547794  1.8540275453303201 15.6360774628597206
 33.4950647071766170  1.4057439345912799 10.6744932740440621
 35.4909954388004536  5.8014860715492400  6.0988333792580818
 17.3302140925908787  3.6096175190891202 15.2430691651659700
 19.3047066017051208  7.9559867521386796 10.9170846798735006
 28.8381278608970177  3.5532907565052798 10.6345322940694089
 30.8728277084684706  7.9070266958686792  5.9454223118300185
 12.8029511909252705  5.6934290625352801 15.3504829069375432
 10.6880091778132105  1.3795362440508401 19.8810714219142319
 33.7223928481875035  1.8832136866722000  6.4270868053798793
 35.5670958199161973  6.1944302553278003  1.9656640750128584
 17.5517783595683277  4.0039281235895201 11.0116876458616098
 19.6155371527478088  8.4730003980284394 16.0342405099447518
 19.0008267165220595  0.7606378362766401 13.2773963095625120
 21.0444343243574998  4.9087824741989996  8.7900268861188202
  2.8353832992088002  2.9348030971442003 17.9574273040015413
  4.9022989731808702  7.3477935186152799 22.9915413042231727
 25.4211776821884676  2.5000215284706799 13.0073120811096210
 27.5258805094202792  6.8937955542609197  8.3401794023246811
  9.2742341628373399  4.7215178467909595 17.5566876473874309
  7.3842151160046292  0.3026589535819200 12.8989104382842719
 20.8007622463338109  4.6321904755960404 12.9593112139489488
 19.0788748702448707  0.4676911233880800  8.1901689310694117
  4.7222390031595802  6.7778977638907199 17.8450439553258811
  2.6238516481248402  2.4957307119983598 22.1922081319122206
 27.6991221423948204  7.3588236354458800 13.8051044399005214
 25.5862573796860531  2.9681457920082002  8.7489198641440709
  7.4753307326828997  0.8139942825570000 17.8959553191768777
  9.5389854257149089  5.1939177948852393 13.3607797911524493
 29.1407576415698593  4.0437443918784401 16.1166836872568098
 31.2310218422164390  8.4450068790487602 20.8747057721773892
 12.9765516365388009  6.2476368694037996 20.6821504037970030
 10.9804565703798183  1.8522355941506798 25.2585403088505629
 33.3494014612348906  1.6500355036817600 20.2006560676604217
 35.5404407390790382  5.7992211824075603 15.7218659360738506
 17.3197525925781903  3.6151955105289604 24.9205276308193540
 19.3910596065615266  7.9843658288281194 20.3088883805363736
 28.9193783365553863  3.6504170120185599 20.3483275949582350
 30.9198604801404606  7.9274091237248401 15.7573823505522181
 12.7488652097735198  5.7701881095756793 24.9297057270036717
 10.9045109117504015  1.4592165380038000 29.3925182585128937
 33.6680974086615379  1.9607654536589600 16.0087625732749395
 35.7837903278362646  6.2739040379938400 11.4767888639025184
 17.6336069088158993  4.0997686036188004 20.7235912351169702
 19.6638579860921823  8.4930339171495195 25.8438693474849188
 18.9458613915870018  0.7599707199762000 23.0176175850994298
 21.0511550747402580  5.1534093070602403 18.3519632087259410
  2.8647267902763902  2.9320564358007601 27.6361854404652156
  4.7543392815480701  7.3508863771944792 32.2945067690604404
 25.4269261670877214  2.7451515631250802 22.5702400409853539
 27.4703589630386880  6.8933448330997598 18.0827266468736312
  9.3039435130375505  4.7179182877098000 27.2334557509001129
  7.2369199677511196  0.3054774259234800 22.1991184484042634
 20.8861101092105592  4.6850878912818397 22.6093911096737727
 18.7723234531413006  0.2944675141362000 17.5544764501901049
  4.6639755105717402  6.8394017408213603 27.2951685477284371
  2.5998649500076603  2.4592692681100403 31.8321369837470733
 27.3920801068804778  7.1859871583227202 23.1690500513677762
 25.6702627733005784  3.0211819314979200 18.4010062717734719
  7.4178967494793993  0.8748289564942000 27.3474062221256098
  9.5161470652182398  5.1570261847499594 22.9987794603144806
 30.6141210711299117  0.8353628214884400  3.7782541268429313
 32.4394276072349612  5.2439843178132399  8.9098418070627226
 14.2850828922359483  3.0196026143456001 18.1978725028071437
 16.1808827645505708  7.4600382196596806 13.5328813863847301
 32.3036007869174995  4.4764378436724002  3.5392817540629498
 30.0963133952102773  0.2531456639829200  8.0747836387397012
 16.0728125941189006  6.8234539263691998 17.7745640921588901
 13.8873170716476899  2.4349782577179599 12.8310309659823112
 24.2671546289935627  6.3511620883768405 11.2279959456870611
 22.4956636023600467  1.8282826464964002  6.2222080448227395
  8.1941376612579298  8.4921054473017197 15.8262240055254022
  6.1969876045940895  4.0894804754569600 20.5062135400985817
 24.1317458032386014  5.7255608542836001 15.4613181335764409
 22.1430967729531112  1.3281419611332399 10.4588594302974514
  8.0253443630563019  7.9286855401628005 20.1062170410042818
  5.8337998751882898  3.6965697918151599 15.1283634758290226
 30.3977608885255677  0.8321105092556800 13.5826766473873768
 32.5842856448976761  5.2187537291729198 18.5273773386618217
 14.1670158475709300  3.1767546423215203 27.8176159243568044
 16.3751631733469623  7.4030375182932397 23.2839238576974097
 32.1849771972454590  4.6358824880572405 13.1600245836629313
 30.2908642506959076  0.1931494556096400 17.8261519320833699
 15.8572119943992398  6.8196965755211600 27.5796843534221132
 14.0309547937375410  2.4092264489341604 22.4491907370243595
 24.3301768652714117  6.3259180297076405 20.9004076596622639
 22.3402156072978570  1.9256278337128401 15.8987483262026501
  8.1791069348974599  8.4692620276756401 25.5175869600157910
  6.3053224359278808  3.9565700386113196 30.0638112735711331
 23.9748439434589073  5.8273800153780400 25.1379325455964207
 22.2043470930478684  1.3023540281810799 20.1308769822300100
  8.0103385542734387  7.9047852480759593 29.7985836680988996
  5.9429211742461101  3.5611145691238399 24.6857411563160021
 19.6498537727716069  5.5212053842584394 10.7464500368445588
 17.6760196859260503  1.1008324248162000 15.4227375754667690
 35.8438855527947311  3.2965705492091204  6.2050771130745197
 18.6678510198221801  3.2907351402693203 13.1024471110644498
  2.5596666575515501  5.5304181842705997 17.6695057090744641
 34.8460221858545580  1.1144408276292401  8.5499902708536606
 25.7492139930030106 -0.0032177624833600 13.1840878849287382
 27.6770090662751400  4.3380978481077603  8.4805944856221132
  9.6032115258083497  2.2170373014223999 17.7460690168542712
 11.7156031007501689  6.6050898012442802 13.0275567042915537
 26.7231044195376590  2.1835810734578400 10.8492195938725882
 29.1076889576399509  6.4734697756718003  6.5019738566878171
 10.6293805322960289  4.3942488880421200 15.3879854718533302
  8.5724257459347086  0.0038513786470400 20.0551715336568428
 19.7487812431640783  5.4699094150581198 20.5092642308600013
 17.3646779220003609  1.1794271568962400 24.8555007602708393
  3.5668068942305404  7.6489185507915600 25.1354491103270483
 35.8416662992625206  3.2592916320096799 15.9703220195976119
 18.7951791371087999  3.3145586356980004 22.8772220423299686
 20.7222026585951085  7.6559412465626400 18.1756088170154229
  2.5354876927499999  5.4365500138596001 27.4456232472330619
  0.4230673846505700  1.0481216652448799 32.1656965918720701
 27.8028566462021658  4.3629295839448803 18.2575349672246432
  9.5803009377990076  2.1224446358866400 27.5218308464695909
 11.6253624627509105  6.5389001785532397 22.8063434430060887
 26.8212069164328071  2.1328607293228399 20.6137357875006799
 28.7947511878792604  6.5526772191304401 15.9374555640397801
 10.6277973427021575  4.3566173009956399 25.1508930923865428
