Ba Na  O 
 1.0000000000000000
    31.5062479999999994    0.0000000000000000   -4.6113379999999999
     1.4762919999999999    9.5312859999999997    0.4319300000000000
     0.0000000000000000    0.0000000000000000   48.2730310000000031
 Ba  Na  O  
  64  32  28
Cartesian
 26.1321219928300010  7.2178053681528800 20.7253142332986258
  9.2161030601819203  0.0503728465100000 20.2444326158183934
 10.0476860511184007  4.8192776432049200 15.6635029141555808
 25.3865722741792013  2.4059630811565600 15.6553053590458511
 31.0209402158757577  5.8760307658483599 15.2733695164625711
 15.6366139027009190  8.2730568366870187 15.5949228966368292
 14.9189885637327997  3.5111322772941995 19.8491240243302229
 30.7523793918976374  1.4130073354155401 10.5395534756570726
 26.0447462596301982  6.6519968732619397 15.1713897560886721
 10.5908093566380401  9.1018465701797791 15.3576113183264908
  9.8556868883233992  4.2706553913520198 19.8661870259267204
 25.2938796161460822  1.9020247371388399 19.9068015803231013
 31.1831015643061988  6.2052685484534598 11.0880858803402607
 15.7490956193369591  8.8164894939386400 20.6619156428000998
 14.9946376507712404  3.9931716339111798 15.6313993002812310
 30.4112236481030784  1.6448064953040600 15.5825075812000531
 17.3125394744382000  1.2477895457571799 17.9081645232919797
  2.0138727541709600  3.5948074370882002 18.0346577554537397
  2.6673803984136799  8.4046031663546010 22.9802263336915189
 18.0896423854345194  5.7984471462498197 13.3923332259232115
 23.0383765594458794  4.7004119270574600 17.5911678826608906
  7.5758249456727995  7.0498477150209604 17.4504114936931423
  6.8693613743058402  2.3084965317720001 22.2302104952724804
 23.7539639310032804  9.4890801312119599 13.0454108955773123
 17.9851278080956796  5.4676132544911606 17.5579098055216924
  2.6998171750177997  7.7703583223521795 17.9185895805111315
  1.8207252065956399  3.1006833629518202 22.2147494289187932
 17.3067477467991999  1.0090599018794801 12.7743888357839097
 22.3621161110297209  0.4444008800801399 17.9454475106826905
  6.8915872880631994  2.8347215005920798 17.9556692896137839
  7.7063657500659195  7.6129890701505198 23.0234732442362819
 23.0269624093511176  5.2438116060595199 13.3905227658900809
 25.6755395801665998  6.9268970803196197 30.0402180763944635
  9.2842348308195604  0.0669192543188600 29.5944929456103196
 10.0031278594381199  4.8296546402117002 25.3414338782966908
 25.4063332154949570  2.4638290434683201 25.3086271539480201
 31.0418723816360398  5.9336575881943796 24.9266962388224300
 15.7053535730929994  8.2915772691393386 24.9464819616830553
 14.8724075751221605  3.5218808991421198 29.5288626426946621
 30.2966506444290786  1.1222912936209000 19.8570183220187850
 26.0172938483400422  6.6950281514175796 24.9987371202422892
 10.6479198776956814  9.0554245370296389 24.9601049548989735
  9.9259288349086798  4.3436579889603797 29.5632852694782642
 25.2444349692007997  2.1330861754909600 29.4922397003478274
 31.1346874175388777  6.4370841974667599 20.6757010063258519
 15.8049094838585198  8.7720190869098609 30.2673655233342451
 15.0659476239021597  4.0703520801119204 25.3264491159965139
 30.3843789239573567  1.6874122015398001 25.4093059911059029
 17.3432816694482419  1.2906299122542400 27.7420763678306415
  1.8842119061491200  3.6407070604526801 27.6028336471862197
  2.6454722969743196  8.3822080755175605 32.5783991351523738
 18.0518278203069187  6.0327846782258598 22.9611872368735028
 22.9075552072699615  4.7434975335432998 27.1581444501977707
  7.6077673306708000  7.0929573403475201 27.2821317558297025
  6.8322236431024397  2.5410689648937002 31.8008589072750034
 23.7314992344351587  9.4665658039870593 22.6450140101483122
 18.0282559276653984  5.5056014339113402 27.2373726873086142
  2.5608066374457596  7.8948589347828397 27.2491737497936910
  1.8954999270101200  3.0950732480122203 31.8012333873195416
 17.2163320453544806  0.7293259984397600 22.1682398088395516
 22.2224723513092393  0.5670813028233800 27.2730472666752739
  6.9358661990610404  2.8730241171373998 27.6365201985539599
  7.6185288911673208  7.3290571117920997 32.4216223770876724
 23.1000089050633193  5.2389290141802993 22.9767684760398723
 28.2394670985077987  4.4803330083116997 18.1702045516389212
 12.8327084505404390  6.8728522105652594 18.1904563482769177
 12.4780084949264385  1.8748187296932999 13.0926057153782924
 29.0958065813176390  9.3319459205230597 13.3198844900908515
 28.8864775345615996  8.6044300086075598 17.7650755348298901
 11.9867711653435993  1.4718655999127599 17.3327849932622797
 12.7851828539060399  6.2265013942756591 22.3657981400789296
 28.1286996159244396  3.8022477752851001 12.7137435293804213
 20.8049145445798018  8.0937207343283006 15.7734000806192913
  3.7799474121561598  0.9711431117914400 15.3282680836563330
  4.8571284034960405  5.6344621331226996 20.5592662623730504
 20.2159871186063569  3.2862416794370599 20.4649747946727416
 20.8447268148967986  7.4385013423542796 20.0519005356170439
  4.0525798569599605  0.2601321465907000 19.6710671953123999
  4.4519855259308798  5.1481194008767197 15.0407703605730205
 20.1497333801616776  2.6468198221308801 15.1367461728959114
 28.2982669001685601  4.5347822905310400 27.8656804389755699
 12.9341937750257987  6.8690600931172998 27.8579137081453041
 12.1352784237676392  2.1126065872013400 22.8251948846022827
 29.0178547049884763  9.2652956390951200 23.2479298409669823
 28.8086625857777179  8.5383891576064599 27.6931234515218314
 12.0878749841667190  1.4671481852199200 27.0018355340591931
 12.4384686858627997  6.4692679190257998 32.1018577332195605
 28.1893617780783998  3.8580865283775201 22.4105363184919000
 20.8693236881963600  8.0786416679991397 25.5215080476812730
  4.0769603653846396  0.9018657220033200 25.1410536469674817
  4.7740271628754796  5.6942038525192595 30.0572105621143031
 20.4671547401880396  3.1903033764497399 30.1485186378452283
 21.1405213395945175  7.3715260440737396 29.8607820889156024
  4.1192572199947604  0.2449539548871400 29.4217434424509641
  4.7055891062992004  5.0552783845879601 24.7276443867042026
 20.0626471945268392  2.7045678824348198 24.6344314595830660
 16.6368622580061185  5.9846038368701393 15.3363299074035400
 32.0526187808218381  3.5865783153815198 15.4694108112995607
 15.9296312250870802  1.1977598255431798 20.0427594761205228
 16.3129969997848399  3.5868319429019802 17.7256201716120820
  0.9535307297741600  5.9702195059775196 17.7222929963090614
  0.1827312711060400  1.1836592410347799 22.3552311011256108
 24.0060893651020777  2.3681074819246399 17.7665338615758124
  8.5800072355454002  4.7030871684119404 17.6956394411132223
  9.3541521568656805  9.5214415159420387 22.8281132089375909
 24.3692786142218374  7.2787914922495993 13.4498660928926821
 24.3813700736439607  4.7138167276878598 15.4155219539881614
  9.3456728424133200  7.1538532031658200 15.7112767963117506
  8.2043828553661999  2.3714116928422597 20.0728050477101512
 23.6382296622522006  0.0010035491029400 20.0848860572158721
 16.7162612640697219  5.9674101594290203 25.1207644364597122
 32.7908652036325989  8.3390356390162594 20.4974519078475232
 32.0483610186335568  3.6259384281085398 25.1657395683447440
 15.5729179428351596  1.1893517062854200 29.4816496280619482
 16.3404328912172012  3.6399748670621603 27.4950491237455310
 32.4233844814716008  5.9702675436589603 22.8151629003951122
  0.5547673467444000  1.0606352154312400 31.7421001265787304
 17.0432188802968412  8.3476908092071405 22.7974802831738117
 23.9684714198560798  2.3685583117524400 27.4695150275504290
  8.6055353267510384  4.7523727811279199 27.4661763472236942
 24.7394932041933586  7.1558704998477198 22.8384467743347521
 24.3762372635500810  4.7513657054491603 25.1126820859335247
  8.9904748198473996  7.1410115109122998 25.1509673917915819
  8.2822008370550009  2.3562416980446597 29.8552229107058444
