Ba Pd  O 
 1.0000000000000000
     9.0185469999999999    0.0000000000000000    0.0000000000000000
     0.0000000000000000    9.0185469999999999    0.0000000000000000
     0.0000000000000000    0.0000000000000000   31.3707180000000001
 Ba  Pd  O  
   8  16  32
Cartesian
  2.1333229533602700  6.8612745735974698 12.7579069650903598
  6.8852197177371695  2.1572835192153401 12.7579126118196005
  2.3529508167820401  2.3764461157973802 18.2397761804424015
  6.6655962734034295  6.6421016056863795 18.2397714748347006
  4.5092822479905896 -0.0000033368623900 15.4987540484631605
 -0.0000025251931600  4.5092748527820499 15.4985975085803389
 -0.0000058620555500 -0.0000038779752100 20.5632584477421609
  4.5092810755794801  4.5092774681606800 10.4341025205167401
  5.3907995833927700  7.7995192009279402 11.7465906202007400
  0.9728450945652000  3.7213071759672798 11.7310109805204004
  3.4284331088191999  3.4924500021021201 14.2076752089854388
  7.7383357547414793  7.8273936358100702 14.2561153620635999
  1.2802025874534000  1.1911573323506099 14.2561197539641196
  5.5901097426491804  5.5261089925653897 14.2076764638141597
  3.6277480479055204  1.2190365470626501 11.7465893653720208
  8.0456991096852306  5.2972366675412701 11.7310050200839804
  1.0161554039361200  7.9378023857883404 16.7895668642522402
  5.7002572253208594  3.2290942705833299 16.7410667931027000
  3.2897468850933698  8.1370651074875298 19.2509149670681410
  8.2310337677685599  3.5365097527287399 19.2661350983201984
  5.7287937117382599  0.8814884760517799 19.2509209275045592
  0.7875070996194800  5.4820323772558801 19.2661385490991783
  3.3182870691150397  5.7894502042235096 16.7410674205170622
  8.0023876279032002  1.0807479510740501 16.7895703150312201
  2.0513348014704498  0.5075208968762800 12.5338529052338412
  6.1861431690569599  4.9242343434511797 12.3783946847704804
  7.2424993775438704  0.5213639155939299 15.0380668982464805
  2.5850791078295701  5.0969266219789704 15.0074324509979409
  1.7760331025954601  8.4971757793830012 15.0380596829813395
  6.4334642847516301  3.9216253382218800 15.0074293139261403
  4.0688310225567301  7.0785587872103495 10.6372078423072214
  8.1692279516536299  3.5360360084548299 10.8435013701680401
  6.9672094027799796  8.5110353922271305 12.5338645123995001
  2.8324012155644098  4.0943211339829997 12.3783918614058610
  4.7064454519481798  7.1313834832953304 13.4608707978353994
  0.4567460263389300  2.6484913977216102 13.3001824512670801
  4.3120949645125100  1.8871703708003900 13.4608698567138596
  8.5617988993952601  6.3700616447048795 13.3001840198029804
  4.9497196750475405  1.9399890244588800 10.6372122342077393
  0.8493165231532100  5.4825164928588404 10.8435054483613804
  6.3966806076591398  0.1968743398971800 17.5365265604563803
  1.8602592971087999  4.9662369635071002 17.6963798185115415
  2.5688057710663599  0.4407294476088100 20.3593101947590185
  8.0450360661097893  5.3581600188322502 20.1539546513664014
  6.4497459185780803  8.5778143958997397 20.3593073713944008
  0.9735071461004700  3.6603853578292900 20.1539606118028196
  3.9880895946041899  2.7325890779402000 15.9593715556858804
  8.4306041121059199  7.0944482044277697 15.9897773104001999
  2.6218643180750498  8.8216760871506796 17.5365146395835403
  7.1582851776980396  4.0523044449937604 17.6963763677325616
  5.0173341569142300  2.4582612919557398 18.4635692359251600
  0.4146014543532300  7.3417112406797598 18.6191764672990203
  4.0012035539823598  6.5602885037938297 18.4635736278256815
  8.6039491530655692  1.6768349476510098 18.6191774084205619
  5.0304527157513697  6.2859690148726104 15.9593762612935794
  0.5879372963949400  1.9240966311209500 15.9897744870355787
