Zr  O 
 1.0000000000000000
    10.4672979999999995    0.0000000000000000    0.0000000000000000
     6.1796650000000000    5.3352539999999999    0.0000000000000000
     0.0000000000000000    0.0000000000000000   31.6107599999999991
 Zr  O  
  12  28
Cartesian
  9.2848523895491688  1.0517395280131800 15.5574125542560004
  3.9096493354231803  1.1436660077857201 15.6128458152071996
  9.7859778398056605  3.6685120072885198 12.7426147280304001
  4.4206474680357806  3.7793441196676802 12.4601871283799994
  6.7717064616672396  1.5487155037234801 13.0588952388876010
  1.9716320438257102  1.2856353560919001 12.6783165455447993
  7.3620454745737103  4.2835060422854996 15.1752574323119998
 12.7373166639128286  4.1915998898306999 15.1199376539891990
  9.8751537571478991  3.7865037104204400 17.6736375569819977
  4.2080954115690998  4.0496470808119200 18.0544511182716008
  6.8610634279600502  1.6667456740367401 17.9901317565768011
 12.2262431435832699  1.5559074794680201 18.2724939219539984
  5.7318964901923204  0.9258511687884000 14.6131770255239992
 11.0118007251456493  0.8420556161118600 14.4627354126395993
  6.2255495533983893  3.5348957460548998 13.6114595424851998
 11.6448767145922698  3.8932951681826999 13.3558040438015997
  9.0988159418762109  5.1774603950348999 14.1730815932531993
 14.2668705364672199  5.1928307816360393 14.0283912420431989
  3.0335002334954697  2.5943727354715800 11.4563125270788007
  8.5484835438305602  2.5268719021516799 14.0162448075131998
  3.2978737692827202  2.5065907877113198 14.0840094259404012
  7.7679765114984489  0.2412217186986600 11.6760967675296001
  2.5935926534889395 -0.3399858599976000 11.6687166033924008
 10.6503533309655403  1.9547750699485200 11.8893657142367992
  5.3212871200861791  2.0359149999465598 11.7748683804408003
  5.5241691495161298  5.3020210763017799 11.3755982447099999
  0.6555083324575199  0.0333679589769600 19.3571510848655990
  5.9967790131847298  3.3805452472586999 18.8432331481212003
 11.3255816758011214  3.2993100829767603 18.9577127798915974
  8.8789623075838691  5.0939879986931400 19.0566190546403966
  7.8737676964123100  0.3399511274940600 19.0641256618175987
  8.0984668970361398  2.8083165809291999 16.7163104319959999
 13.3491324090786794  2.8286670536715599 16.6487177761032008
  3.1461501483218099  2.7408649386511801 19.2763419702167980
  7.5481519941383599  0.1577550310786800 16.5597805867355987
  2.3800310773094799  0.1423869386367600 16.7043780023111985
 10.4214588109621200  1.8004148609900401 17.1210002325288002
  5.0021308819175498  1.4419441065162599 17.3768548790004012
 10.9150595236476278  4.4094546365279399 16.1194136180363969
  5.6350904176657295  4.4931656254285794 16.2698438510471988
