Sr Sb  O 
 1.0000000000000000
    14.1700689999999998    0.0000000000000000    0.0000000000000000
    -3.5425170000000001   17.4159599999999983   10.6275519999999997
     0.0000000000000000    0.0000000000000000   42.5102079999999987
 Sr  Sb  O  
  64  32  12
Cartesian
  3.5425840511037694 11.5888791643523987 27.5207684712604781
 10.6275343100433908 11.5888669731803997 27.5206228737980787
  0.0002280936965500 11.7130471219703995 24.2389458741164816
  7.0851509689791303 11.7131256679499991 24.2390380149923210
  1.8241448308241002  0.0852701075964000 14.9502829510486386
  8.9090299782946492  0.0851175437868000 14.9505380122966400
  5.3550200217963493  0.0025307131476000 18.5490706924598392
 12.4398838078904586  0.0025577078856000 18.5492788862035169
  5.2608479761983897  0.0854426997600000 14.9499614676006392
 12.3459198851767908  0.0851807637216000 14.9503087759999982
  1.7300830614123002  0.0026724790620000 18.5491312695062405
  8.8151354511233091  0.0025956746784000 18.5492650703859177
  3.5424255624207195 14.3032531889303982 24.0789374512044816
 10.6276555739487097 14.3033202403763990 24.0788261807350388
  0.0000439565701496 14.3843368480619986 27.4246926380169640
  7.0850703796277301 14.3841215867963985 27.4250293188643184
 10.6275645784955195  2.7871281525203999 16.9997797853686379
  3.5425060602289702  2.7871563663755996 16.9996490664790407
  7.0849551580069896  3.1918970070299997 20.1947800650710398
  0.0000031278077099  3.1918370961275997 20.1947779395606410
  1.7849188741994997  8.7468271695779993 25.7141930322908792
  8.8699187283839720  8.7470483522699993 25.7145856140617575
  5.3478145617649497  8.8032066377687990 22.1261060667129570
 -1.7371834148835099  8.8031155522979976 22.1258638648028807
  5.3003198196370391  8.7470488747487991 25.7145574510489610
 12.3853807113886276  8.7469149460163980 25.7144323647619188
  1.7371867141818595  8.8032715992995989 22.1257048766249582
  8.8222530968384696  8.8033663421220005 22.1257873464284813
 10.6275235630914100  5.7388420035095997 20.6433738173894383
  3.5425787596274101  5.7387883623527998 20.6431901732908791
  7.0850279563259608  5.6311523306051994 23.8701210392528012
 -0.0000541196768000  5.6314245420599995 23.8701562164499208
  3.5423855671891902 11.8206464060423997 34.3727851686086368
 10.6275217020079182 11.8205647251899997 34.3728088680496029
 -0.0000537840175303 11.7397633787699984 31.0266082805327983
  7.0848521580290296 11.7395935731599987 31.0269025574476771
 -1.7847112265152103 17.3771123079432002 32.7369073443526375
  5.3002483846681603 17.3769754184976009 32.7370542171212833
  1.7371777321803297 17.3209162298111998 36.3253638299135986
  8.8221771966826683 17.3207728964604009 36.3257023174448008
  1.7846827830325291 17.3770107728963978 32.7369588879798386
  8.8697748135125600 17.3770031098739999 32.7368738675638369
 -1.7371891731926603 17.3208773922203996 36.3256487545827227
  5.3478583278437188 17.3207431151687992 36.3258320798547203
  3.5425854749751502 14.5349387497679974 30.9308129083865566
 10.6274757236726902 14.5349359632143980 30.9307657220556820
 -0.0001009674303498 14.4108228658703990 34.2125503788390404
  7.0848656933644190 14.4108303547332000 34.2125447462364818
 10.6275297951322099  3.0766569929867997 23.9537384058377611
  3.5423903303479598  3.0767870902079997 23.9535814368947229
  7.0850807016217896  2.9692137559164000 27.1807065745072016
 -0.0000204685538100  2.9691472269491994 27.1805635276572808
  1.7186872614167497  8.6232922821059983 32.8730672217500768
  8.8035014876902995  8.6230244246411996 32.8737675774268752
  5.2725166558040293  8.7054062694311991 29.2750783534227210
 12.3575059178588784  8.7054154998900000 29.2749632570345604
  5.3667617481080896  8.6225224966739997 32.8741406045020810
 -1.7184211833612399  8.6227624886027989 32.8739797033647960
  1.8125753411989201  8.7052725148583985 29.2747272191046406
  8.8975299928643210  8.7055661479439994 29.2749782418828772
 10.6275057056083000  5.5161845280168000 27.6291736464057607
  3.5426299812310607  5.5161577074383992 27.6289999922060794
  7.0851747269748895  5.9209025279231993 30.8244200602124785
  0.0000492905556697  5.9208041277492001 30.8239591432822380
  3.5425022470572696 11.0787171054239995 23.9099413075660792
 10.6276957352330008 11.0788250843759979 23.9099825424678372
  7.0851017186454097 11.0621905785011982 27.5661226121756755
  0.0000713988157295 11.0621881402667999 27.5659663871612821
  3.5424481745041194 15.0572489632751978 27.3983170731878403
 10.6275152656623995 15.0572197044623977 27.3982703119590383
 -0.0000160089194403 15.0341230066295992 24.1132317113043193
  7.0850672361170188 15.0340603091735989 24.1134009019321596
 10.6275530953835098  2.4140002658195998 20.3894872327119998
  3.5424896175927603  2.4140249964827998 20.3894449350550389
  7.0850589419494705  2.3689618966212000 16.8051072635471996
 -0.0000295814382700  2.3689843632095995 16.8051367018662390
  3.5425739161535499  6.4197365498291994 23.9675174521078382
 10.6273997618857194  6.4196108065979995 23.9675648509897599
  7.0850322896304103  6.4276472271804002 20.6065148101654358
 -0.0001828787505402  6.4275636305723998 20.6063303158627207
  3.5424581425446293 11.0666737949243998 31.0532504906415987
 10.6276782704487385 11.0666884243307990 31.0532900251350412
  7.0849309697126905 11.0899676414243995 34.3384246988598392
  0.0000726036698198 11.0899300229507993 34.3381721882243198
  3.5424304617429399 15.0450626677439985 34.5416295508044797
 10.6275597595031090 15.0449623518143980 34.5416635589708818
 -0.0000986908756397 15.0617387977631978 30.8854783221670353
  7.0850357435367908 15.0617950513139984 30.8856376291715158
 10.6275423950647294  2.2804766286492000 27.2173962848278386
  3.5425130317140194  2.2804262965248001 27.2173817250816015
  7.0851000694189104  2.2884421662743999 23.8564194678367976
  0.0000042484456600  2.2884663744587996 23.8563993817635200
  3.5424961213137198  6.3388554383123994 31.0189492163574414
 10.6275706517605002  6.3389846647355998 31.0190735587158386
  7.0851134113554508  6.2938936993379988 27.4345700973968007
 -0.0000428803873400  6.2939121602555996 27.4344500060592011
 10.6274127753021688 17.1533339412647976 30.9822232660844818
  3.5423875921234798 17.1533995994339996 30.9820856392860762
  3.5424639399207898  0.3347627908956000 16.7378303958153616
 10.6275647204225692  0.3350437103304000 16.7377403804499210
  7.0849873740686098  9.1432901786039995 23.8250601124972761
 -0.0000705065513402  9.1428652291799999 23.8249895455519969
  0.0000046010497301 16.9808056942379970 34.6263746069321598
  7.0851095262953407 16.9809923933291991 34.6265816316451165
  3.5425297421494899  8.9702147221139992 27.4693659779510391
 10.6276470307791886  8.9703239201831995 27.4695070055660793
  7.0851105009099893  8.3729314132007993 31.0863345913952003
 -0.0000033514827500  8.3724897444551996 31.0862542471020760
