Sr Sn  O 
 1.0000000000000000
    10.3651300000000006    0.0000000000000000  -10.3651300000000006
     5.1825650000000003   15.5476949999999992    0.0000000000000000
     0.0000000000000000    0.0000000000000000   46.6430849999999992
 Sr  Sn  O  
  54  18  16
Cartesian
  5.2866606012974504  2.4827683474348499 12.4072745462831975
 10.4690957262185513  2.4824421567937498  7.2240618293094965
  7.9138693156109001  2.4829839939645000  9.7785247962669981
  2.7312727537900501  2.4827879375305497 14.9610364158474987
  7.2673132882965508  9.9232505670001494 11.7633478933216011
 12.4521239973623512  9.9239147645305490  6.5793420884259479
  5.2069546691465005 12.8602538415231002 17.4228334621842009
 10.3893317493396005 12.8595921316238986 12.2406999107204477
  7.7503718280169007 12.8619740384978982 14.8810872140954480
 12.9328208422122017 12.8616416287787985  9.6985884991018008
  7.6244971192147499  5.4858927037768499 12.1162771493286989
  2.4400074182250502  5.4870948515542493 17.2968488830040492
  5.1119163257456499  7.8679845953473500 17.2943667971485979
 10.2938015805202507  7.8696870679498492 12.1113614864261976
  7.6238501278001509  7.8680427437266500 14.7861670331766000
 12.8058639101867495  7.8686065031473502  9.6029026978555017
  7.9296324498379507 15.5232174863767494 17.6036861161475997
 13.1114225008935001 15.5232132884991003 12.4208769136848005
  5.2222159237789505  2.7053276932357502 17.5336890976163495
 10.4052598446106010  2.7047345486715000 12.3512156735398975
  7.8596885007723003  2.7050663364827998 14.8976271111647005
  2.6767898472376004  2.7057311559210002 20.0792529267353999
  7.8277031607105005 10.3198693123881000 17.5011450252218985
 13.0108853523763504 10.3194307119121493 12.3184929581299016
  5.1825650518256499 12.9565610841385492 22.6305766067698038
 10.3651198421726001 12.9563640948428986 17.4485471212112486
  7.7738171301691006 12.9564269075306999 20.0389421069549982
 12.9561680902346019 12.9562173246020986 14.8567078582532961
  7.7744141616571003  5.1823676479247993 17.4482065748651038
  2.5900403946464503  5.1827596053157494 22.6306577657376984
  5.1426222459859003  7.6591708112190000 22.5448945552660511
 10.3252237312435007  7.6599379344902996 17.3625040004039484
  7.6883348147204504  7.6600046341018491 19.9991702739345989
 12.8701662744703498  7.6600724220520497 14.8158748950491486
  2.5381801769379000  0.0455115237579000 22.5771745241480986
  7.7199070525261009  0.0454990856019000 17.3948903155197954
  5.2533234409810499  2.4977501063368499 22.7833578974106992
 10.4364768694111518  2.4961101354682498 17.6014022634034006
  7.9247426479347993  2.4963180081503995 20.1103260317058989
  2.7420941049870002  2.4968945166809999 25.2924129919103002
  7.6179832569175510 10.3893614454370500 22.4751217863223474
 12.8007101084225017 10.3898224345937997 17.2928228592094477
  5.1582907984017003 13.0527681995981997 27.8381640152771475
 10.3407050894115002 13.0523384613084001 22.6552790437140459
  7.7979793365377503 13.0516821931024491 25.1972659701213999
 12.9803852317922512 13.0513681296634498 20.0148169559261007
  7.9255146946428496  4.8782502248932502 22.7810452296050983
  2.7415218979853502  4.8786734331511497 27.9628679308201527
  5.0782264918810007  7.8824807997345001 27.6715780298970486
 10.2608551337792004  7.8825140718017996 22.4893214961658501
  7.6336879318113997  7.8821375066288990 25.1172881087848978
 12.8161063170475522  7.8820064395600502 19.9352826703279469
  3.0967945544085005  0.4416652375884000 28.3157129183203509
  8.2776095576849507  0.4413578596582500 23.1343775336922448
  5.3222670513504005 10.5430434140493006 14.9938388391071982
 10.5049077167993996 10.5431727708716991  9.8108373634828983
  5.1594593113322507  4.9417939653121499 14.8344038605653985
 10.3416982761681009  4.9412188560740997  9.6515729949809010
 15.4868424101086521 15.4995302620903495  9.6138624753636002
 10.3043447834536508 15.4995144034414505 14.7964061231957995
  5.1940242731228006 10.4176130065445989 20.0505702798711525
 10.3766973296030507 10.4175204977593481 14.8683458780429483
  5.1824294240996007  5.1828095134166992 20.0390064744122967
 10.3651596442718006  5.1823841284815000 14.8565080703725521
  5.1712292274011498 15.4951741089052497 25.2102242483448009
 10.3534917210821007 15.4953247660697997 20.0278962988679012
  5.2433911069842001 10.4135730934757991 25.2821292800064477
 10.4258414686464000 10.4132720901005982 20.0999577921668973
  5.2055310703666500  5.4235539097204502 25.2441306616007992
 10.3883598629251495  5.4234317048377498 20.0619160029947992
 15.4084186963643504 15.3695621043229487 19.9018057362334986
 10.2258783135481011 15.3695271220091989 25.0839165362368988
  7.9095187077703510  7.8132930905536497 12.4012715294180484
  2.7266953569051000  7.8135681292781998 17.5829495852439521
  7.7022175588885506  2.5134377305918498 12.1939646797147514
  2.5195482338551001  2.5136393841959999 17.3768952578498492
  7.7587925114545513 12.9932191284556495 17.4329459939661007
 12.9418991413227005 12.9933763156520996 12.2505998018603997
  7.7771278045167502  7.7707527313102496 17.4511559726065997
  2.5947226348213501  7.7709156711538494 22.6333136748232491
  7.7704415182820004  2.5941991439306999 17.4451680888312488
  2.5876417480875000  2.5944118363982995 22.6272024460009007
  7.7884800576723006 12.9197847218625004 22.6456675623163477
 12.9714385698327526 12.9196698243964487 17.4629958533029956
  7.8451411962942519  7.8516029219875501 22.7020342275950000
  2.6630169216218507  7.8514950209842498 27.8845162029037006
  7.6381071049869007  2.5517834772011998 22.4951178323387992
  2.4560442437097501  2.5517808340930497 27.6775786109566511
