Ti Bi  O 
 1.0000000000000000
    10.3195259999999998    0.0000000000000000  -10.3195259999999998
     0.0000000000000000   10.3195259999999998  -10.3195259999999998
     0.0000000000000000    0.0000000000000000   61.9171559999999985
 Ti  Bi  O  
   2  24  40
Cartesian
  5.4387534493152003  5.3503710433261196 23.5471811108183999
  9.9582087457477790  9.7528923852091189 17.5479821504782194
  6.8661728853971402  5.0633677916576998 20.3509964662653644
  5.0784193363050001  2.1977991923353200 24.8250083884185599
  2.3363737088831997  6.8117174690619597 23.1101725068471566
  0.2502933954381000  3.3426849698499601 30.4128803299721397
  3.3808119033905997  1.9894076130486600 28.6291032038335764
  2.0841689308393798  0.2405969624179800 31.7344214292940769
  7.7829574081366797 10.2811626461187000 14.5651964288128219
  6.8231027957072401  7.7966554437538189 18.1055892758768984
  0.0058202126640000  6.8779659365146797 25.8582950967398411
  3.3262693902559799  5.0580162918646199 26.3558262759674378
  8.2476518556322809  3.1804378734391201 23.2686907457331600
  5.2611341805842402  8.2197905801659186 21.2977467254084409
  1.8051811646009399  0.2688816480361200 35.3721322567153820
  0.2071201104882000  7.0035205134988798 30.1814153225020796
  6.9923641771355394  1.6949464399400400 28.5938684206496987
  8.4661091005793399  7.5781832354940599 23.1286725274978799
  7.6142169563808606  5.0086086716723397 26.4726127644904778
  5.0171108259484800  8.3983646114423998 25.6460930324776726
  3.4272006494468399  5.1738374919256200 30.3768170952409768
  2.0568470569970398  3.4113740052016799 33.5558348987072392
  5.2341390229350599  2.0502904429576798 31.7633989678878628
  8.6834798026338600 10.2334374182501993 20.8000833530527771
  2.8294359141812397  8.7854284638930604 28.3185063166760926
 10.2194876893939188  2.6315275285769397 26.7315167724229816
  1.6645857752764799  1.6243879192581598 30.0005976198826758
  1.3335987430861198  5.1961478943565798 25.6634761708294192
  5.2396406718314399  7.1530091671348792 19.4418286824711615
  7.1102714693774400  1.3583359884464998 23.3242410637769382
  6.2512567883337606  0.7901130634563600 26.1119199447565151
  0.7592589190594800  7.9771468429611003 24.2231762119800607
  8.1059939679108606  6.2823310482202199 18.8551143020368777
  4.0197910711807801  4.4254464784777801 24.3204941923372822
  6.3425220571062004  4.1232942658366198 22.4797996173504586
  4.5256125448157398  6.3085997112390002 22.2427089202814940
  8.7310872847106999  8.8889423908559397 16.4932398060645511
  8.6130255091645793  4.0165385629761001 21.0208622849593212
  2.9872665630498596  8.5484126865828589 22.0729982266911584
  3.9738258384715803  2.8642191149073604 26.5668551133186597
  4.0828289277043801  0.4038236914320000 30.8984070109944611
  0.4290769130923800  2.5077234527881198 32.4114253673174986
  2.5893966189483000  4.0266122778667803 28.7215838031830373
  7.1617347391489199  6.7521552288951598 21.6593810986946380
  3.5545402980385203  7.1006888607291003 24.8498017720003794
  6.6073243965145201  3.7234669140433798 25.0691624914487434
  6.4481784208619404  6.4964045585224799 24.6111101036677766
  7.3440336033350997  1.6791054515537398 30.7964019019280428
  1.6643442983680798  2.4542168136733800 35.6355680844907781
  2.4196092512797800  7.2827254025643597 29.8764897372484199
  1.4176030901696999  5.0156734191719403 31.2192847259294410
  2.9233374090656401  1.3935943001496600 33.4094298226353033
  5.0373198633000600  2.8935411192790199 29.7534922356117626
  7.1748879037932598  9.3378018352903194 19.5377037867030587
  1.0311696575623799  7.9946053138526398 27.3843324638692209
  9.3245472297053986  1.3878155719801799 25.2150774932309432
  3.7582442326396799  3.7352122889507999 32.0831667146062784
  3.5742017813405398  9.9513222164622004 26.0994614906025042
  7.9601498612722796  3.4931073341984402 27.9436422078626450
 10.0574049830322600  7.8980225997229194 21.7444479441751781
  9.3858393320155802  4.4095015724646593 25.5196972077339552
  4.4342728722608395  7.5549996979682401 27.5203123419949200
  7.5878810100525600  9.4152991020593397 22.5764727305279393
  1.0393736807323801  0.4229020183197600 37.4534976819263363
 10.2657482669372389  9.1227091686002986 19.2713182256158220
  9.0609784864351202  0.9734452217809200 28.4129092373288401
