Sb  O 
 1.0000000000000000
     8.3069080000000000    0.0000000000000000    0.0000000000000000
    -5.5378999999999996    9.2868879999999994    0.0000000000000000
     0.0000000000000000    0.0000000000000000   43.6151160000000004
 Sb  O  
  28  46
Cartesian
  3.5144094786344797  5.5762477272039188 14.4130473079995607
  0.5608894215414799  6.0091061407353594 13.7755931970085204
  2.8659869390838799  1.4984841416001600 15.4843252764008401
  5.8810529975330805  2.9033681536391995 15.4646771027939991
 -2.7266070529854800  6.3475028801059201 17.1799719486908415
 -0.2054269843409200  8.3659076885155201 16.6694871103408815
  2.5009339469963607  3.7410258559055198 18.0864423505652425
 -0.5188162826535598  1.9331421682882399 18.3833753687467194
  2.9820869071020804  7.3687473133736789 19.4339911120941586
 -0.1222526475730397  5.6811021719878392 19.7490640931711994
  2.6585434509429602  1.0121786660710399 20.5304131948694391
  5.4740127494417594  2.9271741623383996 20.7335292262326014
 -3.0582938387104797  6.5054360689094395 22.0339038782959200
 -0.2137058041091606  8.4416765287722395 22.1010894752846383
  2.5170510717022001  3.7425689652155998 22.9727218671028801
 -0.4003427217295600  1.9122283751188800 23.0906911605573590
  2.8307339914619201  7.4951848573451194 24.4622657448860394
 -0.0607559256088397  5.6986032195549594 24.6314762573731230
  2.6929211663002004  1.0301953216599198 25.3672288083514808
  5.6582815358004392  2.8798157698512798 25.6334153505087627
 -3.0753162972108794  6.5923709060840796 26.8963913490555591
 -0.1896370684226003  8.4406823674118403 27.1636560568803596
  2.5763397245271600  4.1168113277574401 28.0966339816549180
  0.0060281227441601  1.8738530036564001 27.8120217975922834
  3.0540412992353598  7.7170730361805600 29.4840277685567997
  0.0303066482634402  6.3051186377004793 30.0609009195749977
 -2.3032716465309999  8.9362113943647987 31.3721815313941192
  5.2409004751913999  2.1954371324672799 30.0947030706261600
  2.2869102394326006  6.9891537530973595 13.6194127004264391
  6.4222102263331200  3.1153953290584799 13.7217590593297203
 -2.1177056452764798  4.6877185884578401 16.3790165438971194
  1.7111526380400002  4.7895145824167198 14.9042328936706809
  3.8968533714209195  3.2674764782576800 15.4921563704786394
 -0.3118029352988794  7.2055948935141592 15.0993708480151199
  4.8265259331956401  0.9456255762522400 15.7705424967322809
 -0.9840171663815199  2.0203058343831999 16.4574862436973604
  3.8712260772994807  6.4900149127787996 16.2077535040510803
 -2.2331260176479595  8.2230065352354398 16.7493424623764398
  2.1919179381767600  1.8389083943588798 17.3006985897788397
 -0.8559381583599999  6.4692784063013598 18.0432420143184018
  0.5042404788016803  3.6654249225838398 18.5620625736382792
  6.0282985164063998  2.7725073577822394 18.8378422605597606
 -3.6135788987164794  6.3143513831434390 18.9341802010828815
  1.8603311060535210  5.6996602531471199 19.3380256446616805
  3.1280757382871602  2.9039593569292799 19.8130008001690818
  0.3616656995951208  7.5971817266914394 20.4063168499192784
  4.6592550959840802  1.0580550569711198 20.9151460584658793
 -1.0005601933964399  2.1367570948193597 21.2068766656108814
  3.4723694624420398  7.2652624059631199 21.3409665420901185
 -2.2231896988167996  8.3519656550366399 21.7858786704410399
  2.0534082119513202  1.8165655348640799 22.2438295377201598
 -0.6928474127055599  6.5629958292579200 22.9642566092384399
  0.5099613388743998  3.7260696942570397 23.2943201056846831
  6.1406309824486005  2.7336536187188796 23.7170151300963603
 -3.6895796489025598  6.6824050563909596 23.8999984239139209
  1.9197890642032793  5.6907074145084797 24.1854802933896025
  3.1082806184663996  2.9554183748127998 24.6971231130693631
  0.4953510858177204  7.4883352202318392 25.5072939557227230
  4.6653206643036800  1.1384721704095999 25.8223538522649605
 -0.7633889340912798  2.0591288338472800 26.0242128959850021
  3.4182073054386404  7.2164861842850394 26.3245134372728415
 -2.1469099965413192  8.3378559003604789 26.5481290093071607
  1.8931538606812000  1.8161101058765599 27.0543666076610414
 -0.5867052383211999  6.7075914681224802 28.1881267189416000
  0.7675855451487199  3.3982141299797597 28.8060364603018826
  6.4340507363161201  2.2198549613479197 28.4680620541155633
 -3.5751221941711195  7.0355810421935994 28.7554424895907204
  2.2405182219542006  5.8620977683683995 29.1611071196578813
  3.8667882882870006  3.4399637064592796 29.4272875556989213
  1.2726182034932405  7.9360755931766391 30.3018678932076000
  4.1253712268345994  0.5660226362190400 29.7775566269344800
 -5.5324087938590800  9.2820812925089591 28.2900718187776832
 -4.2401373987247197  8.5366089552858391 30.9388636093294771
 -1.4696959533279998  7.2173003657559995 31.0914026798767189
