Ba Se  O 
 1.0000000000000000
    14.5658619999999992    0.0000000000000000   -3.4234810000000002
    10.8426770000000001   14.0819820000000000    0.3543800000000000
     0.0000000000000000    0.0000000000000000   21.6040250000000000
 Ba  Se  O  
  16  16  44
Cartesian
 10.4468505693099907  6.5778074337947396 11.1311089301688000
 18.0700260964044617  6.5380848381493193  9.4110197299625789
  8.0508979844930604  2.8148980771151999 12.7474831471668217
 15.1552961522939587  3.4119414437169602 11.0155152023094498
 13.1761808233243691 10.3263955556000990  9.6997580839784892
 20.5195096618721777 10.2164793491981989  7.6948420033880094
 16.1758949115498609 13.4864200579046400  7.8969203048459402
 22.9632548136492787 13.5799016055738004  6.1927950433562602
 10.0124291870412208 11.0700184136596800 12.8956077002755798
 17.8553322555986398 11.0573125229407196 11.2187198362074394
  7.3015308936076000  7.7516024533957202  7.8013443779354610
 14.8403024883381196  7.1404472509921204  6.1126546500968999
  2.2397379474169998  0.2299717214834400 10.7275652558910188
  9.4155297515140006  0.3672434452987201  9.3411940304317600
  4.9907124557428499  4.0003211525328606  9.4006755547955816
 11.9676871471753596  4.0315666766539193  7.6976328247814294
  9.5573849737567400 10.0090875225724787  9.5539890529722200
 16.8503583282387090  9.9860655942997791  7.8507811419927593
  6.8406539598419096  6.5331568485484199 11.3336741003047816
 14.1039777639410389  6.5489789410641599  9.6178533994657585
 12.7976884354159495 14.0598861028636186  7.7358580495043601
 19.4929053128777596 13.5793174849604412  6.0755673154761398
  4.1560272219025505  2.9282393031791401 13.0273021933849691
 11.5637425194166585  2.9695954087365601 11.4515183129341498
 11.2436697884422205  7.6398836124780010  7.5088569559593905
 18.4500667211095397  7.6515054722225990  5.6486665474302802
  8.6031439553351206  4.0734084697705200  9.2138309463816004
 15.9098450637769684  4.0414991210179796  7.5089946048687306
 13.4691201736744013 10.5770913075334807 13.0664637659968896
 21.2866970518353895 11.0858602209502202 11.3489312960784403
  5.8785552408110098  0.5002780415500200 10.9455352893292783
 13.1503757142201803  0.5355084849374400  9.2303671946181787
 12.2312113596130096  6.5944081190952595  6.5258822520184498
 19.4845109523353699  6.5372304843013795  4.8276968992952298
  9.5214402960359692  3.0518024991570600  8.2026738721428707
 16.7902888339169287  3.0450451192745400  6.4745646608484808
 22.2206705971019005 10.1072687909143202 10.2886438035476093
 17.5696337094940098 13.5253949003058604 10.1973119507579995
 24.9059576822904987 13.5792935455910388  8.5163394812868205
 10.7255956207824301  9.3532861003369803 10.7099613765859996
 18.0084657449775989  9.3530899383277202  8.9987685516292100
  8.0433336977601488  5.8774749823400994 12.3454893440308489
 15.3019498803019403  5.8352043928716002 10.6620512267303305
 13.5669021337999691 12.8735717788051804  8.8782771865400800
 20.7462180912548675 12.9288013122091794  7.1794569978628804
  8.6593062028531804 11.0629143353803201 10.6043002648277191
 15.8926685044593903 11.0147121334537790  8.8732115680549182
  5.9238091006833606  7.5445984445542802 12.3527932461495613
 13.2078397256715299  7.5461777388355795 10.6420518411182492
  7.7332892171042182  0.3997480394304000  6.8678439997438403
  3.1785114635433098  3.9515729921641798 14.0450531410754103
 10.4826591214804594  3.9944837485344000 12.3301425155839688
  7.3796393378520202  4.7008517374742400  8.2116400743581597
 14.6631276020641774  4.6993627086975600  6.4995221489143908
 12.8195510190238195 11.7696355004287199 11.8743939350823489
 20.0792274474480976 11.7249370364436007 10.1935167551834986
  4.6749346641463490  1.1784170077330200  9.8728530770846099
 11.9724093672879999  1.2085340018166000  8.1394607452757999
 20.3481038022679783  9.8519709064435208  5.0435477716389192
 10.4076748813621798  6.4393746505635603  8.5055550309146408
 17.7373348780768012  6.4843978450536000  6.8144572672001500
 15.8238104561123301 13.4771841083703006 12.1953667236606123
 23.1111026141131006 13.4793877977334802 10.4817410685612913
  7.6941746928458397  2.9177103460575600 10.1738731479250593
 14.9781469834243488  2.9179715668236601  8.4635644336077309
  7.7469570832523296  7.6993725229775398 10.3729200154917791
 15.0274330258036191  7.6891347812437196  8.6469628949659505
  5.0074264789491600  4.1227925724463201 12.0560667685622303
 12.3081482421722104  4.1512087447439399 10.3232421084415407
 10.4084723254148503 11.1676309107485405  8.6712457740310214
 17.6890189083458722 11.1670887544415400  6.9604022207940091
  9.5546167977084693  0.6085431355624200 12.0930011553290004
  5.3442500160776394  2.3456734814517599 14.0381097409637619
 10.1091101730012589  8.2530536648661599  6.4497993548928996
  9.5878464961679288  0.6039974717728200  4.8554314464969703
 20.3095136051427083 10.0022359342303790 12.2010859734328090
