Rb Ce  O 
 1.0000000000000000
    12.8801559999999995    0.0000000000000000    0.0000000000000000
     8.6138410000000007    6.5895539999999997    0.0000000000000000
     0.0000000000000000    0.0000000000000000   33.3624119999999991
 Rb  Ce  O  
  16   8  24
Cartesian
  0.0000219303190700  0.0000291917242200 19.5795415215633568
  6.4400766543793395 -0.0000349246362000 19.5787538350160411
 10.7470099467179594  3.2947625029811998 19.6410167700351614
  4.3069191493971797  3.2947826670164400 19.6401900494657973
  3.2203338510155000  0.0003612393502800 21.8845018575218369
  9.6598669625059905 -0.0003321794171400 21.8842072674238786
  3.2201127542935297  0.0000925832337000 17.7668779379492392
  9.6600512578241400 -0.0000966028616400 17.7669032933823594
  3.2200115453983997 -0.0000152877652800 13.7828467911241201
  9.6601311725560794  0.0000324206056800 13.7836177964654407
  7.5269886766124401  3.2947725191032800 13.7222186142930003
 13.9670124803916398  3.2947796358215999 13.7214652910300394
 -0.0000496867016600 -0.0000865867395600 15.5955183817171203
  6.4401155850397895  0.0000879705459000 15.5954750105815201
 -0.0003020016943200 -0.0003774496531200 11.4778157268521994
  6.4403397705628693  0.0003560336026200 11.4780512654809197
 10.7470260828100503  3.2947085345339397 15.8374759385059196
  4.3068926725805907  3.2948486284519798 15.8374922860877998
 10.7459868899700304  3.2940552461503798 12.2523574838442002
  4.3079218307019005  3.2954943388484397 12.2523928480009197
  7.5257914527626504  3.2939749853826599 21.1100405039427628
 13.9681997812699699  3.2955654401360999 21.1100932165537181
  7.5270180289143900  3.2947062940855796 17.5250661749008785
 13.9669779049402898  3.2948390077031400 17.5250244718858781
  8.2875513458465591  2.0710048320261598 19.3994185264235988
 14.7281752414409297  2.0714521968472197 19.3989844814434811
 12.4427278855674786  2.0389624667457600 21.6097116838355987
  6.0002026354605693  2.0371598942490596 21.6093847321979986
 12.0207067477170106  2.0936025872449799 17.2811485764070802
  5.5805471270521805  2.0935599528306001 17.2811879440532365
  9.0512610637670008  4.5505757183246400 21.6096769869271199
 15.4938049343884501  4.5523960826171397 21.6094521242702378
  9.4733100472272298  4.4958997506516596 17.2811972855286022
 15.9134172588105791  4.4960396468830792 17.2811409030523180
 13.2064410993203900  4.5185691343224592 19.3994769106446014
  6.7658392829349703  4.5180826934461793 19.3989384413149182
 11.5076447512130606  2.0710381751694000 13.9630241669954387
  5.0679757241975203  2.0715048473836801 13.9634658853303204
  8.8006802290722508  2.0935264120007395 16.0813314829133986
 15.2407970980123402  2.0936342829997199 16.0812510795004791
  9.2203462664504094  2.0372228903853000 11.7528978216434403
  2.7823939675028102  2.0388017475237001 11.7526299214750800
 12.6932828617396716  4.4959669641024602 16.0813014567426009
  6.2532337096072403  4.4959765189557599 16.0812864436571985
 12.2715063009927601  4.5507596986723202 11.7526018970490007
  5.8336108514476113  4.5523502193213004 11.7529428608996405
  9.9859120390676921  4.5180956089720201 13.9634655517062001
 16.4264605980953604  4.5184832724338397 13.9630265023642792
