Rb Ta  O 
 1.0000000000000000
    10.9655009999999997    0.0000000000000000    0.0000000000000000
     6.2566490000000003    5.4278570000000004    0.0000000000000000
     0.0000000000000000    0.0000000000000000   35.9287199999999984
 Rb  Ta  O  
  12   4  26
Cartesian
  3.0649034900248604  2.6566733474997699 16.2095007147839993
  1.6094156342348200  1.5224447918803901 12.7558715470056008
 10.1496165612475799  4.1129533767287105 16.1449479428471996
  8.8331803387211298  2.8968970000701204 12.5153603838791998
  7.1167878505207698  1.2882907318431500 16.1023235465879999
  4.4368452515422909  4.1874658034961705 12.8368491332904000
  3.3419433424162106  2.9089064593540406 23.4128293082135990
  1.5070763898074002  1.4354186579137100 19.8257942880647988
 10.2534849716095913  3.8021299138307807 23.0924949485760003
  8.5455866489097492  2.6588370541356801 19.7186756836823989
  7.2154399516901702  1.3779771670826702 23.1713800462080002
  4.7323520467228599  4.0391796270203804 19.7852846562647997
 -0.0766853539450300 -0.0727370290213300 16.1729586915336014
  5.7034897766977899 -0.2421904908328700 12.9201908293511991
 -0.2085873559942200  0.2543835745191000 23.0086085731199965
  5.4007312075794101 -0.0652872410102600 19.7553607032383987
  4.4158846197755093  1.2262357796763901 13.7409307003944008
  7.3077066150312895  4.4224231320908398 17.6235980073191989
  1.6699844395041001  0.2891099180337000 17.1401857026119977
 15.4001007950501094  5.0172049882223408 17.1407648735783980
  5.7950594951786103  3.6244600877640605 15.2076028481927992
  9.9467222965395798  1.0387746423673700 14.6618186448527990
  7.0828802274759504  4.2199009942924999 14.6772061970543994
  9.7490823479627604  0.8978248659699202 17.6026594678775972
 12.8622970398510610  4.3630087780760105 14.3258168482847985
  7.0014767954387400  0.8567017929808201 12.1545106438464003
  9.9430111502681502  5.3314166280168100 13.5032460496704001
 11.5835956851725683  3.7940191213942502 11.7512995057848002
 11.2298508027587989  1.6504783312035001 15.1778671616591989
  4.6356702212676604  1.1821608752149801 18.3045280909392005
 12.4561117007319204  4.0965210281683406 18.3266346730679999
  4.4054113897575107  0.9899458036310801 21.2519399175647976
  9.3263228432782110  0.0771691999332500 24.1772236048295994
  5.9064218827818005  3.6658470631605007 22.4283518408015965
  6.0050006183454405  1.6117977938644001 18.7871984675783992
 10.0700713870508789  1.2616984119930401 21.6021030191208006
  7.3202778777554798  4.1982492727195000 22.1856608822327992
 12.6250698120700502  4.2733870971705006 21.2672365701047994
  7.1553240516913501  0.0289512122237400 20.7498241990872003
  9.8898664368832705  5.2271219298403402 20.7219833932464006
 11.0756250148846309  3.6822704557568207 18.7893782630208008
 12.0294449048137011  1.3817014911632202 23.7751197899183992
