Ba Na  O 
 1.0000000000000000
    31.5062479999999994    0.0000000000000000   -4.6113379999999999
     1.4762919999999999    9.5312859999999997    0.4319300000000000
     0.0000000000000000    0.0000000000000000   48.2730310000000031
 Ba  Na  O  
  64  32  28
Cartesian
 26.1273873469028359  7.2138110921288598 20.7199723324187488
  9.2194589501640412  0.0504226951357800 20.2495744287982546
 10.0328467316215999  4.8261863005491596 15.6569350066790829
 25.3913109170187603  2.3994708456976599 15.6558565877550233
 31.0267600079074768  5.8801577173734998 15.2689919670315817
 15.6321363178508399  8.2738160989297800 15.5671618132563001
 14.9216526626294002  3.5058939778214597 19.8455303371280500
 30.6930675311302004  1.4095101159564198 10.5294348053596529
 26.0409779887711217  6.6441769296632396 15.1745647606184129
 10.5717803007870010  9.1113545998419401 15.3494810106258424
  9.8669694143741182  4.2704752500466201 19.8628338821361012
 25.2848239534199593  1.9032585621115399 19.9051817425559712
 31.1484268942951985  6.2092849370609997 11.0849181739990303
 15.7489769776411599  8.8160896564909397 20.6549028551378306
 14.9940531765927592  3.9860723508469400 15.6253663097944795
 30.4128622205900783  1.6465309908800398 15.5839693196292330
 17.3086787578265593  1.2482069207711199 17.9076988538079611
  2.0007911240017200  3.5922205507549396 18.0068708260832224
  2.6685453318846397  8.4019414594262400 22.9725803316250357
 18.0946287228025611  5.7968473198947192 13.3938300941305517
 23.0280286116639985  4.7009324305859197 17.5806635646651799
  7.5826112028259196  7.0452107443819596 17.4602405388622408
  6.8771464440339196  2.3075986846308001 22.2297176924805591
 23.7713503170924803  9.4871170675474001 13.0306490099809711
 17.9808561999053182  5.4777066004265800 17.5495680682223174
  2.6904373669969202  7.7717613276513795 17.8830319227680015
  1.8224706088734399  3.0998429894652002 22.2002088395426114
 17.3129738478218371  0.9985038120087600 12.7564223651142914
 22.3601925825107166  0.4452038909256400 17.9470252201125113
  6.8897767819558400  2.8360467305975199 17.9610954604727731
  7.7017490280801599  7.6110437346779198 23.0183653785499729
 23.0455761741064400  5.2415386802871007 13.3804724349217619
 25.7326677141004794  6.9301317128494393 30.0540103814464885
  9.2902842057811199  0.0670342969408800 29.6238516601558608
  9.9997674412122404  4.8339224641439200 25.3463369434315844
 25.4006186741356395  2.4597001856859797 25.3120690850398518
 31.0361754595175583  5.9401832784671402 24.9261432045409137
 15.7027656284423998  8.2895247066992397 24.9426802570354411
 14.8882745321859211  3.5162673529395598 29.5366232920030605
 30.2993218155385975  1.1254141241659399 19.8612677595002722
 26.0145753878852766  6.6929954140523593 24.9973487602288706
 10.6501131086581200  9.0551362156281403 24.9683434287476480
  9.9286908140075205  4.3540084889920800 29.5662788367102323
 25.2790756260449960  2.1303391635528999 29.4974107808785320
 31.1425871422198384  6.4369896471096402 20.6754120953357514
 15.8226431842601993  8.7626057982305401 30.2744198694862838
 15.0562081893606408  4.0692969667517200 25.3295609752062489
 30.3866286328436388  1.6960684201721401 25.4079775285217089
 17.3384198427209988  1.2953626723175398 27.7342183144942922
  1.8925550600110799  3.6385568976439400 27.6108964744449317
  2.6287406784503999  8.3836915248705992 32.5928713477462466
 18.0449496247360415  6.0322452074382600 22.9622359558291080
 22.9206369335417186  4.7465406825373799 27.1862558854829928
  7.6132754079535605  7.0907513242028193 27.2837944104364922
  6.8280673264736400  2.5429443407270602 31.7976686924558933
 23.7280051733636803  9.4686221789415601 22.6514526707437831
 18.0318302406443607  5.5046347708852199 27.2319444494586627
  2.5605953832721999  7.8938571013113794 27.2459838461584205
  1.8772875352418401  3.0979603698544800 31.8120608210116522
 17.2201474671975987  0.7282358099470800 22.1736515210941825
 22.2309490227089235  0.5671804281977800 27.3092572797697635
  6.9411118307806001  2.8612984431616200 27.6431090376769504
  7.6086308001182799  7.3420423452127803 32.4341047686037456
 23.0981268769018797  5.2401362468650596 22.9921992647898819
 28.2455765009910778  4.4802274016628196 18.1691979481995993
 12.8377095630405993  6.8762215201662595 18.1753508497309610
 12.4322369193935209  1.9045091621476000 13.1007910779069796
 29.0857956452865203  9.3230009992377809 13.3450880816135626
 28.8919813762749627  8.6073368602118396 17.7674310875991850
 11.9840237303447594  1.4693101668233000 17.3214046802834218
 12.7859354926934401  6.2278537884462004 22.3673763162946813
 28.1187827350570387  3.8088913675656797 12.7308053657908982
 20.8152929675087606  8.0959030175708602 15.7595677511655996
  3.8328486694742798  0.9721849766641000 15.3363148130337503
  4.8398424717859196  5.6426940189023194 20.5418220396022413
 20.2137974713410387  3.2876983458764397 20.4682525578712280
 20.8452815554196000  7.4370992901836797 20.0562669958804527
  4.0403517981663200  0.2647383311759200 19.6598496271462402
  4.5012340071202797  5.1320181041240591 15.0481109010465612
 20.1516510350086406  2.6348685426154796 15.1201269126568185
 28.3064584590401580  4.5312282646073596 27.8506886676999947
 12.9372966211675582  6.8698500461009795 27.8689428794787730
 12.1363374652571991  2.1102192859969202 22.8252738965013897
 29.0115380981926023  9.2626782526466602 23.2464191609756803
 28.8162457180096787  8.5476050533527204 27.6698470486924215
 12.0841259472088396  1.4642366632855000 27.0153320190658519
 12.4878459471221195  6.4375379819932199 32.0934549122569166
 28.1820591850273594  3.8580209531298402 22.4119188063812729
 20.8815538889487584  8.0753592837264598 25.5332589327767394
  4.0759746943656401  0.9022491656391001 25.1364430206026022
  4.7702500201418001  5.7053049413234600 30.0709035365764521
 20.4209620059904786  3.2073156735182797 30.1449433015680874
 21.0895441667852808  7.3691863992993198 29.8555100184406186
  4.1060677734162789  0.2452164465035800 29.4307140086756931
  4.7077524579596002  5.0532003736142395 24.7251170101451905
 20.0805887831496399  2.6962180946473802 24.6521921609599595
 16.6365127171973199  5.9807503379403402 15.3319198081345540
 32.0535828783337209  3.5885534837792998 15.4558300957157506
 15.9343232579160397  1.1938571451776199 20.0478149847394924
 16.3126785054632784  3.5913397646156797 17.7187699590970205
  0.9406791380818800  5.9674071094174996 17.6996623470548897
 31.6887063108447578  1.1817932058617000 17.7451139024976214
 24.0013548074516798  2.3723641542522400 17.7607985475854520
  8.5795779345457994  4.6999025751336196 17.7020851697134916
  9.3571774477733580  9.5199102195332799 22.8294103407980913
 24.3860716628517586  7.2757620683073601 13.4329486783079091
 24.3817109436112816  4.7082044205524802 15.4146874193448298
  9.3324838848004799  7.1587525701083994 15.7027483418118905
  8.2109285406485988  2.3743038662661000 20.0703984892963518
 25.1087036525342420  9.5286582244497993 20.5208529260010515
 16.7118392809101586  5.9658698082985593 25.1220850869717722
 32.7941384411735157  8.3417128819407989 20.4925298068683723
 32.0462883982168023  3.6313787908444799 25.1672899177478513
 15.5874032220640792  1.1831698094986800 29.4906006302921035
 16.3422912949473975  3.6405943053393002 27.4912373777283108
 32.4263764247925650  5.9679066441167592 22.8204204824340593
  0.5368142852497200  1.0634493276227399 31.7590177288821742
 17.0417183897271585  8.3512820071462190 22.7945832854856292
 23.9803753878192367  2.3719448729810999 27.4937701520270714
  8.6096396427736401  4.7481743449577802 27.4727980938718446
 24.7384128929550435  7.1578926574854798 22.8358044754166336
 24.3740901642822436  4.7508269971644399 25.1255845616863525
  8.9874330226596406  7.1456237002076994 25.1441096476037629
  8.2846220664136396  2.3591767622554998 29.8594527189178116
