Zr  O 
 1.0000000000000000
    10.4693380000000005    0.0000000000000000    0.0000000000000000
     0.0000000000000000    9.8167539999999995    0.0000000000000000
     0.0000000000000000    0.0000000000000000   34.0062349999999967
 Zr  O  
  48  16
Cartesian
  0.0000029314146400  4.9083662015706002 14.6637092324651483
  5.2346642887979007  4.9083479424081595 14.6646345421194990
 -0.0000018844808400  0.0000151178011600 12.0740310582607488
  5.2346724548815402  0.0000298429321600 12.0738079773591487
  2.6173182725261004  4.9083639437171795 16.4536576772392991
  7.8520173195261602  4.9084014437174597 16.4537182083375981
  2.6171623840832798 -0.0000500654454000 13.4777829343844981
  7.8521665075926599  0.0000653795816400 13.4777887154444489
  2.6621571908595403  8.1431967231062004 16.5305049670922983
  7.8969078516959401  8.1432236210121598 16.5304406953081475
  2.5749133705842802  3.1829449517764594 13.7145567865695988
  7.8104770802097603  3.1828976350221798 13.7144785722290976
 -0.1289882116826600  3.3472537553593198 12.0662939596735495
  5.1057566910178398  3.3468961310110998 12.0657287760478482
  0.0334165564953000  8.1489596485419007 14.6507610184265484
  5.2680540437879202  8.1490280713172787 14.6511357671362479
  0.1289827676269000  6.4694607812895999 12.0662480512562986
  5.3635692692434596  6.4698107485696994 12.0656607635778492
 -0.0334482785894400  1.6677978854895401 14.6507181705704497
  5.2012879345605203  1.6677378069550601 14.6510898587189970
  2.5724339172657400  1.6735257651134601 16.5305117683392986
  7.8072107514471396  1.6735174208725601 16.5304638195479505
  2.6588532771734998  6.6338288780666197 13.7145210800228483
  7.8944536294819807  6.6337984461292194 13.7145969139268988
 -0.0001055309270400  4.9083293887431001 20.5284364227474008
  5.2347630146552406  4.9082620458106598 20.5284473047425990
 -0.0000197870488200  0.0000100130890800 17.5523970897151997
  5.2346620902369203 -0.0000162958116400 17.5525031891683980
  2.6173427707770198  4.9082259201559397 21.9324851733026982
  7.8520083158954801  4.9082084463338198 21.9323505086120996
  2.6173161786585002  0.0001355693727400 19.3417779704271986
  7.8519712544389595  0.0001695353415800 19.3422901043262989
  2.7462242999054598  8.2554701532638788 21.9406534709496945
  7.9809346537905608  8.2556725747313600 21.9403521757075950
  2.5839128135290803  3.2405953121545599 19.3553236740147483
  7.8185698784837605  3.2405542781228398 19.3555365530458481
 -0.0448733624554600  3.2348441668236600 17.4757293527829987
  5.1898352116421798  3.2348092191794198 17.4756297145144472
  0.0418184096270600  8.0912895564882596 20.2915979587157977
  5.2769704648823810  8.0913268601534600 20.2915449089891951
  0.0448279255285400  6.5819170975742995 17.4757126897278496
  5.2795707343614406  6.5819487075221792 17.4756184924568991
 -0.0422335188787600  1.7254723950824800 20.2918747694686985
  5.1929906701153801  1.7254834880144998 20.2919152368883466
  2.4884472127356601  1.5614776294600801 21.9402627393095457
  7.7230664833801601  1.5612840430712001 21.9399124750890486
  2.6506665689376403  6.5760504090488201 19.3550917514920471
  7.8853882297077806  6.5760754417715193 19.3553131320818963
  3.8976985228772802  3.2665267586832600 15.6032280520475481
  9.1322514179188605  3.2664987809343597 15.6032028874336497
  4.0047715834046800  8.1473573579540197 12.7027818589215489
  9.2391391711636608  8.1474511079547192 12.7028563325761983
  1.3370968420323801  6.5502490345106192 15.6032161498652968
  6.5716275420774011  6.5502283211596799 15.6032158098029470
  1.2302052151325200  1.6692773684848801 12.7028699350701988
  6.4645478858670611  1.6693683697944599 12.7027842393579995
  3.8472826928846202  3.2391020857036201 21.3034796659417474
  9.0821029748187208  3.2391422362274795 21.3034514407667004
  3.9543938618023398  8.1748679275311602 18.4029603594104998
  9.1891196056142999  8.1748491775310193 18.4029923252713985
  1.3873798161258202  6.5777491983285197 21.3035456380376473
  6.6218942886969403  6.5777159195324595 21.3035024501191970
  1.2803002646088602  1.6418516156623000 18.4029195519284983
  6.5148815315564201  1.6418627085943198 18.4029144509932507
