Ba Sn  O 
 1.0000000000000000
    11.0513480000000008    0.0000000000000000  -11.0513480000000008
     5.5256740000000004   16.5770219999999995    0.0000000000000000
     0.0000000000000000    0.0000000000000000   49.7310659999999984
 Ba  Sn  O  
  54  18  16
Cartesian
  5.6385757868162800  2.6471412113823596 13.2594129113307417
 11.1634370154276219  2.6405191884040198  7.7367664281153381
  7.9200970190603801 10.6441746208412997 12.7084856971441589
 13.4466354555009406 10.6427247944971786  7.1831518576355986
  8.4700283962786802  2.6495491895980798 10.4271516747351782
  2.9473085873693003  2.6435836166909401 15.9517570093835790
  5.5769648532567198 13.8144287927368783 18.5721243409933017
 11.1026637187897208 13.8136596189160787 13.0469175367299979
  8.1300326251806201  5.8172740394768994 12.9214886601585377
  2.6095579528741806  5.8140663857199000 18.4531652550814798
  8.2593447796690604 13.8124645814000999 15.8910416218091974
 13.7843354748222211 13.8126369824288986 10.3650381811253176
  5.4738995397548003  8.3331850796686808 18.4047270862840016
 10.9992993558109209  8.3333876508775209 12.8801974533693979
  2.9720183516192407  0.0063864634957200 18.8092246025514562
  8.4962793262639611  0.0072415062904800 13.2829048170310777
  8.0981665605332811  8.3368807609533597 15.7884762712907989
 13.6231475305002014  8.3373986271206402 10.2631895105247164
  5.5877044427296401  2.8769119979199598 18.7205228918153601
 11.1116928358759406  2.8777267585512600 13.1948422057498167
  8.3370654289784412 11.0163912601142400 18.6541891094312575
 13.8632028672568222 11.0164249114688992 13.1284791372935192
  8.4066163692788205  2.8772566342073396 15.9004800808253393
  2.8810821688310204  2.8756920948709803 21.4277983003807826
  5.5253141128523806 13.8141216205192201 24.1290021536117401
 11.0515499081279600 13.8135160619055597 18.6040062090682810
  8.2881276287378807  5.5257457232485194 18.6012174566572170
  2.7622386800192800  5.5258485007849201 24.1275897360806049
  8.2878936164439807 13.8144491824739397 21.3663612597819963
 13.8137997500087213 13.8150845797272002 15.8403113481797799
  5.4645862372547604  8.1733205895263996 24.0116052309964623
 10.9902801296811603  8.1739654356821987 18.4859472554510589
  2.7132940831997003  0.0348530229847800 24.0798001156404986
  8.2397158174053811  0.0352253428989000 18.5532563192961533
  8.1701243739145806  8.1728536148166597 21.3050784407445626
 13.6961897021472616  8.1735064179430204 15.7794047722849964
  5.5777640314873400  2.7180403056252596 24.3259476184956007
 11.1030822885952194  2.7187892554792197 18.7999410834342839
  8.0804047787709408 11.0440617910068593 23.9222113743351201
 13.6062495773542800 11.0437416887120392 18.3966164467300572
  8.4803759944380399  2.7179721740648399 21.4175615472418599
  2.9545252281267800  2.7175562565828599 26.9427370761903227
  5.4745483643958801 13.8146684964749991 29.6850160823570164
 10.9996334933177007 13.8147485634912588 24.1593230740384612
  8.4456129846827217  5.2347248296635600 24.2851912969496624
  2.9186409486033797  5.2360601087856598 29.8087512845907376
  8.3182886361590409 13.8143260152004803 26.8409055351791181
 13.8443937492445226 13.8150623665177203 21.3154258178769567
  5.4134645801359209  8.4079577266423211 29.4708309566470774
 10.9386848670437828  8.4063277080690604 23.9454348427925368
  3.1301214779172799  0.4075925015316000 30.0202688359204402
  8.6567798767403819  0.4072077488509800 24.4945096300273590
  8.1059036645248206  8.4044843432226610 26.7797007386585619
 13.6307998153958412  8.4056710922276405 21.2539454559940211
  5.8313657238251810 11.2285812859697387 16.1439662533118167
 11.3568971614359810 11.2284811607568606 10.6187306602869800
  5.5733036521777999  5.1649607641169997 15.8899584239349796
 11.1002795562289425  5.1647689679724600 10.3631921086986587
 11.0342673680716405  0.0225686208316800 10.2984538094253182
  5.5089811598729606  0.0225371244898800 15.8234674361255774
  5.4943144186315003 11.1787434639480594 21.3353157024669180
 11.0203314524734211 11.1787945211758188 15.8100785622533593
  5.5247525386037610  5.5255371843117596 21.3655131793364781
 11.0513738601543210  5.5260527296959596 15.8405810010709782
  5.5564747147001405 16.4491649212459805 26.9227825964713006
 11.0823729465510610 16.4485323420864589 21.3971220791158636
  5.5425031585046209 11.0289306168657006 26.9084241325823008
 11.0683518803165022 11.0288818804210198 21.3829222020706560
  5.4775268131953609  5.8855387133835597 26.8425506940991419
 11.0031469378738613  5.8854029475733798 21.3164680705068363
 16.2708399831208013 16.4010582376317586 21.0623779638441349
 10.7449718109364412 16.4005506492181219 26.5883226113566593
  8.4435973845777408  8.3337753874220990 13.2313425979242183
  2.9184886610279404  8.3322934016552992 18.7579545258289784
  8.1689254131700615  2.7255566589405000 12.9581726152232193
  2.6411051861317203  2.7256499875743598 18.4813661401646172
  8.2519924836148810 13.8906277266834000 18.5668662201283752
 13.7775482894480206 13.8902704918592992 13.0413997091870790
  8.3055167590456609  8.2796626829670608 18.6198251638522159
  2.7797433521704003  8.2796475978770392 24.1456159213438397
  8.2712652056757801  2.7720701249703001 18.5862643197323365
  2.7460795094871600  2.7719058466822801 24.1118174732419597
  8.3250361471939200 13.7377534351780781 24.1651536547297781
 13.8508640372148211 13.7378202405767400 18.6395459628177775
  8.4087733161247193  8.3254144348359596 24.2491208574692010
  2.8842691013105202  8.3254843898687998 29.7758887751509782
  8.1334577694662595  2.7188844075855001 23.9739800326226202
  2.6073682940382001  2.7190937753733597 29.4993714496542552
