Zr  O 
 1.0000000000000000
    11.3347560000000005    0.0000000000000000    0.0000000000000000
     0.0000000000000000   10.9786370000000009   -0.2107820000000000
     0.0000000000000000    0.0000000000000000   37.4878890000000027
 Zr  O  
  72  24
Cartesian
  2.4944499542004004  2.0029098179417404 12.3021698694414319
  8.1618517571879998  2.0029054264869401 12.3021677044808904
  5.5164132185250008  1.5046015610124401 13.7165169482693301
 11.1837906517872003  1.5045945346847600 13.7165287044154010
  1.8131421407657999  9.8404506326672898 12.7791883300228619
  7.4805203674609198  9.8404539262583910 12.7792040117016406
  5.3087729568366004  7.5326098307687701 12.2057433016379395
 10.9761543572634004  7.5326187234647408 12.2057476294511993
  5.4287888671389597  6.5359253591471411 15.1385842433441109
 11.0961692474377216  6.5359206383332307 15.1385809600703602
  4.4305322589690004  3.5704545397480598 15.9442748967120185
 10.0979176265604007  3.5704577235527903 15.9442812085263714
  2.5641278730640802  6.9214410756931004 13.4665471509043702
  8.2315087067530808  6.9214347080836403 13.4665476480368209
  4.6096593752016002  4.4269174443055501 12.9623148474527721
 10.2770437226649598  4.4269151387917809 12.9623051448658515
  1.7275137265638001  9.0113586778008710 15.8627942436451406
  7.3948893462650407  9.0113627398965601 15.8627960400502541
  2.6450653984954799  1.0322173792039802 15.2131324395580805
  8.3124500860015207  1.0322155128356902 15.2131365990588101
  1.6636501974854401  4.0569984186272707 14.3030640501143402
  7.3310269506622801  4.0569960033271304 14.3030794665208703
  4.4886012340850403  9.5149646760145217 14.3030468927458223
 10.1559815010362406  9.5149642368690408 14.3030645204849307
  5.4122320757022004  0.5625184622193501 16.8400024034470022
 11.0796143829094795  0.5625161567055801 16.8400245655657308
  2.5788939997479599  0.1331468235949700 18.3303597145898820
  8.2462646321565600  0.1331546184272400 18.3303513175990815
  4.5288041400987602  8.5859584513248706 17.3914366633210413
 10.1961845203975194  8.5859662461571400 17.3914503841847505
  2.5704352113878399  6.0399335946248396 16.7225086734072015
  8.2378191054609609  6.0399309597519597 16.7225072244793225
  2.6556711029895603  5.1631756914955202 19.8026785199626509
  8.3230603243979999  5.1631761306410002 19.8026942564447488
  1.6019411788275602  2.1892517607519202 20.6414210915745393
  7.2692639785658395  2.1892429778423201 20.6414441278124343
  5.4192111116665203  5.6198945659550503 18.2149934349055123
 11.0865919453555204  5.6199024705736909 18.2149741643190808
  1.6568267877210001  3.0894460896442504 17.5488610148348414
  7.3242121553124013  3.0894525670400803 17.5488736363557223
  4.5543296705680802  7.6419355371602506 20.5758273223029242
 10.2217208188850393  7.6419391601104607 20.5758178807726146
  5.4801424527152403 10.6391188082520518 19.7212197940790190
 11.1475214728432803 10.6391420829624916 19.7212107250067099
  4.5037940009847608  2.6542165796757802 19.0561699777893701
 10.1711791418810407  2.6542151524529700 19.0561703800699220
  1.6332614899543201  8.1118984903647302 18.9740744230413583
  7.3006303088019600  8.1118680795402405 18.9740660098141412
  2.5971190405728000 10.1648128160367417 21.3321266462143981
  8.2645137026641198 10.1647953600039109 21.3320475070331028
  5.4327247478123999  9.7047972764588497 22.7848511462903041
 11.0999931407218799  9.7048700648221597 22.7848774898435025
  1.7063122921609200  7.1912631470284705 22.0662696973212391
  7.3737194224838403  7.1912399821044000 22.0662990077457941
  5.4217979296808396  4.7007299208313107 21.4356550858017414
 11.0891948587233600  4.7007361786543997 21.4355968594280526
  5.2170325021567203  3.8025240426724203 24.3735851788051825
 10.8846081803013615  3.8026620441395100 24.3735154259541318
  4.6862888999200800  0.6828885676464600 25.1508208326227738
 10.3538386214734803  0.6830838775986900 25.1506884993517197
  2.6114969518636801  4.2400832194122904 22.8446943208008619
  8.2789099762597207  4.2400343644776397 22.8447200007875004
  4.5187290155330402  1.7153558206285602 22.2468779541560906
 10.1861275314414002  1.7154123606091103 22.2468112648230409
  1.7397582100803601  6.0520568643184607 25.0457651427482624
  7.4074094910475212  6.0521846556531402 25.0457889307680830
  2.6147539940002802  9.3097495779103809 24.3952608397238109
  8.2823294454498004  9.3097920652355715 24.3952705206063918
  1.6416745992477602  1.2879904181295601 23.7495613774251595
  7.3091534785761603  1.2879650574780901 23.7494928866158190
  4.4242149460599602  6.7783513397127111 23.7688335829727038
 10.0917259027478394  6.7783763710050708 23.7688338521475231
  0.6586054306422000  5.8186466502436600 13.1086143678314606
  6.3259808236483206  5.8186409413524203 13.1086283479570316
  3.5629741152411603 10.2963752027398705 16.2443311114862219
  9.2303557423630807 10.2963742146625403 16.2443420019444105
  3.5487616913878801  8.6206527008267901 12.4464347720379696
  9.2161353841805997  8.6206588488635099 12.4464462752456413
  3.5539662713003999  2.7552047797703501 14.0443413430807720
  9.2213562861417611  2.7552116963116604 14.0443532064125911
  3.5413602090674403  4.3455281971970106 17.8900848560225434
  9.2087482970002803  4.3455308320698904 17.8900814315248518
  0.7419259751750400  8.9211134033699118 20.8959991492983619
  6.4093133830225204  8.9210538991573713 20.8959942936745620
  0.7228016348091600  7.3265606856117405 17.0400793997182731
  6.3901787280286806  7.3265513537702898 17.0400732059418409
  0.7103061997947601  1.3760824524857100 18.7262083929969023
  6.3776753586850807  1.3760851971449601 18.7261952195402515
  0.7348181763825600  2.9974963818190399 22.6194965624599611
  6.4021534443524404  2.9974840857456004 22.6195432835181620
  3.0519725975724001  7.5531167170347002 25.3842870643503922
  8.7195305934976801  7.5531922500572604 25.3844228198439730
  3.5777434156567205  5.9690846075408910 21.7388146483119122
  9.2451820566013208  5.9690813139497898 21.7388259579132104
  3.5488179117776397  0.0058726925040400 23.4061663894435696
  9.2162162009908801  0.0059604118136700 23.4061785758143230
