Ba Sb  O 
 1.0000000000000000
    13.4934619999999992    0.0000000000000000   -1.9099699999999999
     5.0956099999999998   13.4278449999999996    8.1797950000000004
     0.0000000000000000    0.0000000000000000   55.6388260000000017
 Ba  Sb  O  
  72  48  24
Cartesian
  6.6955581687371204  9.0154395566997998 31.7246595562239051
  3.3237110720223000  0.0063474766099500 21.6179080842272313
  4.6402968172222998  4.6483388567589001 19.1455577145562224
 11.8758719391522582  4.3888154052042001 25.5438535626777394
 13.3751872425698579  8.9090672570141489 23.4942693526914113
 15.2663815572610986 13.2054112705120481 21.7341712778289313
 12.9952470399769417  6.3252946156806997 17.4737885711199397
 14.2851795446098997 11.2013160122595998 29.6551811407011030
 10.8726478954093597  2.2034736464322999 19.5830727715930415
  5.9798170054519399  6.6806607879858495 25.7437094956707107
  7.6784777623967990 10.9876520083411489 23.6776755152439087
  4.3218384685313396  2.2698349963714501 27.6317430095029337
  7.2091106454058789 12.5394919415771486 33.4908350471966472
  3.7819565563521396  3.6532573922010001 23.1914619021307011
  5.4805673428570003  8.0542541355538511 21.3520264709130139
 13.1267930010079397  5.3498660107863500 21.9188399558161890
 14.8485079999849194  9.7939406236836994 19.9978036088969802
 11.4015529531318602  0.8759854760640499 23.8002709150060099
 12.2987679033696988  8.2461094392940009 27.9137919641174825
 14.0134397080960387 12.6853392857153509 26.0750558810964108
 10.9714048792646395  3.4828690499839001 15.8590060222804823
  8.0143957060777993  9.6665475697643508 27.4638649438750129
  4.7344363023022202  0.7014127487880500 17.2769257054813323
  6.2770166018912992  5.2244088492806497 29.4053599352566088
 10.3610558925953793 10.5344277300294991 31.6470046843035178
  6.8208995116858997  1.7663931290503501 21.3582679067831727
  8.5118503334966391  6.0851193459864996 19.6553009269744230
  9.8569951904854598  7.2732983242255003 23.9339939249278189
 11.3585607501678183 12.1570239468731511 22.1269123129136531
  8.2291743755040585  2.8536911248164496 25.6638916344085501
 15.9673192102935992  7.6135420574916504 29.7380777924055124
 17.7086144917725399 12.0639233263501495 27.8291514791204264
 14.4349537492560405  2.8200767975925998 18.0146347813911198
  4.3811375142791391 10.2528153391713488 25.5944960199283500
  1.1662012734582801  1.0999254069256499 15.4522972117420316
  2.5782474806914597  5.8420928076849998 27.5331047791120227
  6.7195534822274787  9.1740699407210986 45.6274828731012576
  3.5152645108314595  0.0427065896302500 35.6876998197282944
  5.0144752154309593  4.5629619326798991 33.6383680819871387
 12.2497211441962985  4.3040932228474000 40.0357073918529807
 13.5670675146296595  8.9452753067781998 37.5641005223316640
 15.2905548095804988 13.3640902633322511 35.6371985911628357
 12.5686340059217585  6.6819102489631002 31.5504724497649391
 14.3073985279283580 11.3929939341673006 43.6838715908165796
 10.9105393569910607  2.2712051736752499 33.4384800141770100
  6.0178105429538000  6.7489838118010503 39.5990999023759898
  7.7008384907329992 11.1783604398398495 37.7068494044090912
  3.8958587647510199  2.6263797306322498 41.7076398261222892
  7.1374694193844794 12.5856145749753985 47.3639158436658576
  3.7637709718446999  3.6022725361282499 37.2631336426500326
  5.4890605515171202  8.0758259685463489 35.3820736213900489
 13.1085091978995187  5.2991411177927992 35.9898477623677380
 14.7769441697671589  9.8404176179115002 33.8710276730316480
 11.4099238008320611  0.8975730196352000 37.8302578903128151
 12.1562029826132800  8.2507009566132989 41.9054013353223738
 13.9716462823410801 12.7131870249039505 39.8976961081999093
 10.6136070080182598  3.7274224685403499 29.7771704938671320
  7.9727167755846384  9.6938169716687987 41.2875054683125242
  4.5917496547352794  0.7057371862702999 31.2684737453404011
  5.9191743691438194  5.4692418355700001 43.3224524486022062
 10.6278447951914998 10.2228288128311497 45.2349165239824487
  7.0333008810700592  1.6786661978178998 35.2482238289606826
  8.6614081476888796  6.0979558286927000 33.5182887157248359
 10.0697275183083796  7.1857615312782501 37.8234175690801919
 11.6251282991681997 11.8455358093960506 35.7147007993291297
  8.3788387219373401  2.8667382904107002 39.5264926806906800
 15.7241660067784181  7.8531142826668994 43.7301975341644180
 17.6048467273288765 12.1265263567522492 41.7674537201234912
 14.3122802004605401  3.1096912441216000 31.6491875670089584
  4.2776780847354594 10.3154791977112996 39.5327337359283604
  0.9232832299693601  1.3382885889371001 29.4442326328779806
  2.4548563835565798  6.1319939387047500 41.1666483341640301
 15.7974204036780783  6.3196996355045494 19.4017840305618883
 17.4328343444923988 10.7294863804728493 31.3837818709225118
 14.0464959677181191  1.7646025259196001 21.3657483746327621
  9.3569662253921386  7.2728691702992991 30.0194863148062581
 11.0941202226408997 11.7650211079915490 28.1089248666871505
  7.7697395827009998  2.9195238204979499 17.9603258993680903
  9.2361259728418990  6.1426165726057995 27.3468156132299995
 10.9174705032282588 10.6371050896065000 25.4098424115528196
  7.9179013843286388  1.6262514105310999 15.3964667703301821
  2.7788910316515998  7.2303686980898005 24.0420911850082426
  4.4152292917583997 11.5730158152227496 22.2422731829895497
  1.1807282023133798  2.7065352371830000 25.9392390037261187
  4.6931644732393796  8.5545512015759488 28.9006151235370723
  6.4795443220745197 12.9305996803110492 26.9244393528637147
  1.3368308846526000  4.3880122857947503 17.0170316415465486
 13.8379109114446592  4.8960703776699503 28.3698357001288706
 15.4651416881438983  9.3722694983884001 26.3950430067046398
 12.1205469144986786  0.3331229470626500 16.4198706619533503
 11.6370466729371387  8.1187024204158504 20.1208856957565310
 13.1029791187357390 12.8760581909331489 32.4697141221973169
  9.7435349655712180  3.8892210183109501 22.3990122376153700
  7.1877954181510990  5.0514717678040997 22.9687140305095170
  9.3529819761271789  9.3857642140565005 21.1405250826395239
  5.4227569142873397  0.6571898869003999 24.6988757072973826
 15.7097861731009996  6.2451732158562496 33.2432716227597496
  4.0774182182548993 10.8071150351514991 47.0295109820516188
 14.1116641326247390  1.7214052828330499 35.1399391076425687
  8.9730870902047393  7.3257587661852996 43.7848753633087000
 11.0684825885637590 11.7428301170661005 41.9518464011681829
  7.6543846486379001  2.8090691873753997 31.8354813148160432
  9.1208905709986006  6.0328040590311502 41.2221004512923273
 10.8917217059949198 10.6147953965312496 39.2531132791997166
  7.5336012760558591  1.6788758064783500 29.1627845077214509
  2.8443872354938593  7.1876476063869488 37.8162951780767500
  4.5534249822532198 11.6501179640989498 35.9781427964906513
  1.0932973454772601  2.6322165462968501 39.7799191368653098
  4.7697497312735999  8.6183068781928505 42.7622368245967976
  6.5209103193649796 13.0076052829816984 40.9667887113538001
  3.0524751049203402  4.0556817158655498 30.8125890469744093
  2.0617854395034598  4.5644753850898496 44.0750280686722533
 15.5064553869033404  9.4482326974517008 40.4373770003723365
 12.1972359780099389  0.3975372594768000 30.2815987947894989
 11.4676412524306386  8.2947492565159511 34.4832300959292724
 12.6342791694068382 12.9937688286583484 46.2209851776043905
  9.7028945547038390  3.9002609896346003 36.2136281680445862
  7.1469354359290396  5.0626777072919493 36.7830671200999717
  8.8830512719653196  9.5036088616747989 34.8922127445110561
  5.2532823798811998  0.8330926422236500 39.0604444604952690
  7.9569990810130609 11.3374587842594003 31.3642955338716227
  4.3762805658493793  2.4876127548841001 21.0128337774590221
  6.1260309944214999  6.5460050155413496 19.5737462093112491
 12.2993244922328788  6.6073447542858501 23.9963680354178486
 13.7148119203836991 11.2499171572879497 21.7799163022535112
 10.6486783007959183  2.0815744610162499 25.9289029669336522
 13.6588367543185782  8.6279960083095002 30.0339321993601196
 15.4187919502084387 13.1022569538806497 28.1803743577273522
 12.1057200432619787  4.0676503569493994 17.9818985546571213
  6.7077014527137395  9.1686959828736505 25.3635529716464916
  3.3637744746237201  0.0057354354348500 15.3929942208483901
  4.9091614544267994  4.8220292403399494 27.3118058509961479
  8.2712650407588590 11.1295401523811002 45.5821737333217598
  4.5911885500631593  2.3440195430860502 35.1857594130850302
  6.2419145200605799  6.8699421081179501 33.2533925779380937
 12.5142949551375207  6.4637657760034992 38.1686110176701874
 14.0289027472142784 11.0423534233529992 35.9975393310679408
 10.7645109359130000  2.4063446170966500 39.6081489914777904
 13.5265662582655999  8.9469352569771008 43.7896563862731369
 15.2782740827552193 13.2108229606039487 41.9981811054861893
 11.9813312460585202  4.1295004880823498 31.8708080309070496
  6.5674302460181000  9.2777843327674496 39.1818858225068922
  3.2316655438472197  0.3235593672967500 29.1484569653229144
  4.7847807251456196  4.8840343288042005 41.1993830910215593
