Rb Sn  O 
 1.0000000000000000
    11.4376709999999999    0.0000000000000000    0.0000000000000000
     0.0000000000000000   15.2839220000000005   -5.8871430000000000
     0.0000000000000000    0.0000000000000000   35.3228579999999965
 Rb  Sn  O  
  32  16  30
Cartesian
  3.1788253497090300  2.8764711074912404 16.2072642931990210
  2.6576027902460400  9.6902581213561199  9.6932718469879173
  8.7972419871371699  4.8700155651922197 12.1708624969804475
  9.1695485864677799 12.0197965255048800  7.2268296208230600
  6.8879760437231097  3.2659794142337200 16.3000364829359370
  6.6503559124104896 10.5993046881659403 10.4517735293508309
  0.9187015282605300  4.6616312101813806 12.9564198990427482
  1.2621179431656600 12.1288742086776011  7.3828626943807780
 10.8895361725575590  6.9333240962190805 10.0147597777605597
 10.7245860845804106 14.4031265402934192 10.2855499290029702
  4.8843504583261499  1.1180733050623202 13.3070764451374792
  4.5632356718436595  8.6864608670171588 13.4467364320693203
  8.6869624796427889  1.2913326090504202 13.4175122421173096
  8.2698785421142809  8.5898588380161609 13.3446963485932173
  0.6870782822299201  2.6789059351857603  9.2442483825490775
  3.0131053920968700 14.0423341247222009 10.4826399967141182
  3.4479420819146100  3.2630184600246599 22.2103470979124076
  3.0794974121971501 10.4136638789656413 17.2617121243290583
  8.3739375578585999  5.5920156604954006 19.7416908938795395
  8.8964291269190401 12.4062072397756218 13.2278944306589104
  6.9804345160323900  3.1562697408863003 22.0517638317499483
  6.6373746133323301 10.6220882778521215 16.4781428104578573
  0.9305613636971400  4.6861301144336203 18.9847112734678483
  1.1684656067574000 12.0161323580446009 13.1373464624188223
 10.2829984238316303  6.5984351773319005 15.9897093389912683
 10.6023849782260200 14.1674357773981612 16.1285676736607968
  5.0078495115856203  0.8821014708414801 19.1482611100793960
  5.1692762250112203  8.3538857810815603 19.4200388295600561
  8.7309590824182290  1.2422492105827401 18.9532119971034909
  6.3996117398856303 12.6061820752236216 20.1930828148187089
  2.5504832824955397  6.6935516091145004 16.0901743762291503
  2.9673867335756703 13.9912722225516202 16.0186210982642692
  0.6923988580257000  0.5957014058561800 12.8023012066457689
  0.4963945782698700  8.4680707396298001 13.2022432655364561
  5.2030166682009602  4.6252071786278606 13.2685126560445479
  5.2425347365196400 12.6238611406402406  7.4118519284556585
  5.4451400393396998  6.5675543186093401 10.4581196340191092
  6.5919588243392102 14.5569615078117209 10.2443202060739171
 11.0261572082484900  2.7276966465471397 16.1267579070311697
 10.8490337782726201 10.8221907340488208 10.2202528001613295
  0.8754585536272800  0.7271737029001800 19.1918848985808275
 11.1642820689224997  8.7167967010811989 18.9796639314167983
  5.1319692872502598  4.4605615874005196 19.2166061305950002
  5.3070023684741701 12.5560145881684804 13.3111304495501379
  6.2161782611957692  6.8162110438940795 16.2335440285795798
  6.4129895830173602 14.6881589999381603 16.6342361683598980
 10.9618777259819105  2.6590903303127602 22.0228949897494140
 10.9260866227585804 10.6553930137646606 16.1681996259796463
  0.0983617974425100  1.9470091947091401 14.1881475028175092
 10.9921917860701797 10.2364711048116206  8.2869660216197101
  6.7058225547948602  3.2534232137930603 13.4274358458438279
  6.4790494531518004 10.9276319136600808 13.3056134901019796
  5.1353124041068501  0.6850583973115200 16.1259380046255600
  4.9656724135128600  8.4592950172958403 10.5951018539573987
  5.0439675034461295  5.3319089850443602 15.2323503510846585
  5.4292708427107499 12.9391274905892804  9.4415331380792402
 10.5147424516680008  7.0315804569373599 13.0252144029263981
 10.8195984744472806 14.4318405973940411  7.2136969354472402
  6.2107481125118102  6.3101713908979207 12.3591585859639199
  6.5574936903149101 13.8987331185358816 12.2396779590931786
  0.4414088899510500  9.2785421231084193 11.2622758159898666
 11.0252298418838102  4.3007599295726404 10.6429925848337987
  1.0041776455544400 12.1588328355466810 10.1961524262479379
 11.1487629794028607  2.3438256615951398 19.9941053879331889
 10.7615390264239199  9.9501254505886401 14.2032718675416607
  6.7240998386761497  3.1237218647912002 19.2379091107690776
  5.3029383352144501 10.9810635879367595 18.7955451824918391
  5.1013833537223201  0.8500414575366200 22.2208345721954643
  4.7964872990945402  8.2518949468617997 16.4114949355262993
  5.2726242751261800  5.0507430519871805 21.1484904150597259
  5.8165678824073801 13.3404077797345995 15.2486790486523169
 10.6888272355892990  6.8248946041783807 18.8382465734280302
 10.8540841962793788 14.6020723092731615 13.3110253051761607
  6.1612815579573299  6.0050751154868998 18.1722785926391062
  0.8396349674183100  1.3847702548405398 17.1970516900028656
  0.4890251724678600  8.9695692337213195 17.0760003145082990
  0.7598037982697401  4.3566471187578406 16.1287778446659011
  0.9864055636012200 12.0347052272197814 16.0066472381165674
