 K Sb  O 
 1.0000000000000000
     9.4146040000000006    0.0000000000000000   -0.8223780000000001
     3.3654829999999998    9.2033629999999995   -3.6053649999999999
     0.0000000000000000    0.0000000000000000   37.6704300000000032
 K   Sb  O  
  24   8  32
Cartesian
  6.2513788958341001  5.5828069329512999 13.2946833878949011
 11.3530868575375408  8.4398853216940584  8.9272037262189414
  4.3409585782718203  0.7052277532063400 21.8334403986298433
 10.0280557929463399  2.8114965246781396 17.3921719871624063
  6.4987900727113495  4.1736858221399897 16.4220104843837333
  2.7925452505624100  6.1384273021376501 12.6985525044829330
  8.6861799406064399  7.8142007623586389 21.0841425827754030
  0.8564022533354401  1.3304219573611200 21.3432163775418644
  8.8178544984701599  6.6449782848841599 17.6978608956694039
  5.0350687821953297  8.6765270689324492 14.0894445846027914
  7.0224700717071800  2.1833795165018199 13.3667451478685795
  3.4305561652780301  4.1996577125259895 22.3425742662452720
  5.5923087014642396  7.4197391021608388 16.9233393685097013
  7.8664031411122810  0.2628874376736400 16.0713582798626220
  3.8003217234411606  2.7655645646850000 12.0878365833058812
  9.5706036529631113  4.7634340099693100 20.4244045345884508
  9.5891487212442286  4.9599526838392691 14.6111873187827310
  5.5677127576042196  7.1605803149730196 10.2368771440571038
  7.7302311073226315  0.3038064178743100 22.4763703365291114
  3.9871778781643901  2.6354931593051099 18.7569324306954925
  3.2857418581844602  4.2916733959681395 15.9345018707360602
  8.9483501937838597  6.6585383358610999 11.3324606792541811
  5.0511961492768203  8.8644173138890192 20.7513937050930011
  7.0523361795425004  1.9857652743003400 19.2850687713695805
  8.4325752963309597  8.3449086402739194 14.6389314411226188
  1.3109532291787600  1.3255533783341200 14.8395377479058226
  6.8644373581055103  3.6604205259168294 22.3379578410543900
  2.8217493435997301  6.1054012180794093 19.1650450633731140
  6.0298859166694498  5.5567125458037694 19.8100117818754917
 11.6146589739286199  7.7513449222120601 15.4826461201175807
  4.4709615003464807  0.7939030760476399 15.4020018058254191
  9.7660009130457208  3.2470156756897599 11.6376734583479831
  3.2378718837662999  7.9298629224575796 18.1456303288195606
  5.5340249135178610  0.9332557969121399 17.1825450422637616
  1.7425163834500998  3.2048383196660999 13.8468517839042011
  7.1880368735534903  5.6547140045074888 21.5605971050483554
  4.6195920535587502  5.2767902354189102 18.2780934227441705
 10.1607671257030692  7.4495253263421892 13.8807596051892936
  2.9667100741904702  0.5832407659529100 13.9192606229907323
  8.3536576585585607  2.7284606545487202 21.5268348689159232
  7.6805951108268307  6.5917976641585900 15.2051413025682720
  3.8542071091526497  8.7609966389500098 11.4602362675912701
  5.9659589255348200  2.1587527896519001 23.2453180424634631
  2.1919836779804998  4.2901158188140194 19.6367643813395425
  3.7420737422869004  0.1188387928720200 19.3069570119074392
  9.2752267632457297  2.2867160727030096 14.9211149431515118
  4.7131281396926799  5.1077000681969595 11.4887012402723609
 10.8580641853143600  6.9931676447250801 19.4748718574383410
  6.7326406595099408  7.3704707390129398 19.3819313053076989
  8.9739298746836216  0.3095814361231800 18.4973737371883225
  5.0197381794679306  2.6111589153313299 14.8952775946874496
 10.5983785462237705  4.1665813781057697 10.2217839062782510
  7.3985286655153804  4.6059818633953791 18.7295099950128012
  3.4986962179026797  6.7679989018361200 15.1903353086042827
  9.1975610574795503  9.1232853668396707 10.6207267325271921
  2.4382063540510299  1.8492494900805900 23.0944365635834714
 11.1464672931898310  5.9751601947194297 16.5267538751460528
  7.3736709886218694  8.1896568337260298 12.7486777006460699
  9.4246885756938408  1.3621904938990399 11.9040501854924017
  5.5487042679122993  3.7179132903424201 20.7825800702921413
  9.8562622163085898  8.6276316260533097 16.1815332729206922
  2.6378979729270799  1.6118854629139601 16.3224201585013624
  8.2860397199870910  4.2575923304092100 12.2605176237131914
  4.2808910795768700  6.3346880977763496 20.6307773982402125
