Rb Sn  O 
 1.0000000000000000
    10.8075019999999995    0.0000000000000000   -6.2397140000000002
     0.0000000000000000   15.3609010000000001    0.0000000000000000
     0.0000000000000000    0.0000000000000000   37.4382840000000030
 Rb  Sn  O  
  24  24  32
Cartesian
  3.3732246633126199  2.0977955462652198 11.3516047486683416
  8.7769696111115003  2.0977990792724501  8.2317257848750600
  3.7863773081692598  9.7380095485768106 12.0562907178810228
  9.1901462486225789  9.7380043258704703  8.9364169954475017
  1.6256225177322399  4.6833966265657496 14.5531485277193617
  7.0293743823323993  4.6834058431063506 11.4333026344102819
  1.8121215275451199 12.6816971941928998 14.8752333296226400
  7.2158742567454395 12.6817071787785505 11.7553738337370408
 -0.1476993211077400 -0.1250097773001800 17.7184529214183399
  5.2560589199185994 -0.1250085484281000 14.5985984797010797
  5.6210154015312197  7.5135200558257704 15.2318900781057440
  0.2172531617291400  7.5135093031950699 18.3517434590716206
  3.3850789799563397  2.7268573145433597 17.6004283567255051
  8.7888296557312806  2.7268258246963102 14.4805756621281638
  3.7505453595133202 10.3654939059312596 18.2349350770345211
  9.1542903073122002 10.3654882223978895 15.1150740836175608
  1.9772598338800600  5.5570572410903605 21.3997445366190213
  7.3810105096549989  5.5570627710147198 18.2799128074607218
  1.7901119416471001 12.9192759550733598 21.0780085347283404
  7.1938661838976996 12.9192547570299805 17.9581635149792191
 -0.1837374769018400  0.5031455442099499 23.8960725947387616
  5.2200073628220194  0.5031521493973801 20.7762300084781018
  5.6326863148659996  8.1431239103002007 21.4812781930884817
  0.2289428801174000  8.1431632342067601 24.6010997515129617
  3.9455628424025999  6.0888198366452899 12.3311591671663212
  9.3492840136970798  6.0888279779228203  9.2113100292059613
  3.5655088208710795 13.3633337966696786 11.6725972886359202
  8.9692489052940605 13.3633305708804695  8.5527185120340601
  1.6641647717397401  1.2711710858656800 14.6173868201293420
  7.0679143667644801  1.2711776910531101 11.4975250155495594
  2.0269280869715001  8.2109574955071896 15.2475800885473003
  7.4306785465964005  8.2109834554298811 12.1277282675099229
 -0.2540018027047200  3.5449028653434103 17.5373872158435624
  5.1497495215203397  3.5448661527900200 14.4175461271142602
  0.0722313992419000 11.6290247868575598 18.1017338431709014
  5.4759041529274191 11.6290307776089499 14.9819646983440222
  3.8558565770268602  6.6946569978745005 18.4140126849346224
  9.2595910415488003  6.6946130656976406 15.2941513795319626
  3.5305421208252596 13.9721385303630807 17.8518798457373435
  8.9341589997254385 13.9720806197663112 14.7317700749232028
  1.5753449376780400  2.0303490557634301 20.7040747669449203
  6.9791033948544197  2.0302919132117099 17.5842273137073448
  1.9381892010997801  8.9690752560179199 21.3346323722633429
  7.3419341488986598  8.9690900024828792 18.2147818615658998
 -0.3432205416652400  4.1519996204546201 23.6207784097672402
  5.0605731479676592  4.1519599893300398 20.5008720536295002
  0.0369080516300800 12.2392530152466303 24.2816517279518003
  5.4407168717657806 12.2391775932227205 21.1619208325717452
  0.8674993804865199  2.4142104449119399 13.2233313204683611
  6.2712687532399194  2.4142195078435300 10.1034678311658013
  0.1097883332920600  7.3591896979148101 15.1720679432792593
  5.5135029120103205  7.3591841679904508 12.0522199908645611
  2.9207101234968000  7.3590150444704401 13.5502713686293195
  8.3244885745518804  7.3589861659765594 10.4303816725279610
  4.4879431663236797 12.3298033761154908 13.2717302860807607
  9.8917244273292795 12.3297751120576500 10.1518966226111225
  3.5845616903719399  2.2885527448075802 14.7913683912085041
  8.9883033959202194  2.2885174147352800 11.6715399690986210
  0.8519415490574400  2.2918197012322601 16.3640646563924435
  6.2556864968563204  2.2918292249908800 13.2442002935299215
  2.8148499929566797  6.8818515426479294 16.6155840334925990
  8.2185926711801400  6.8818916345995396 13.4957337099865811
  1.8008058568010799 12.8003117675797515 17.9768369198756020
  7.2047678192401197 12.8004286640363603 14.8569648197677218
  4.5033004105156396 12.7999351182872303 16.4165083294139222
  9.9069064819138202 12.8000891881242591 13.2968432006194206
  0.7880361412813199  3.3588768243090499 19.3374551025505212
  6.1917576368008600  3.3588533221305199 16.2175544869496626
  0.0188027839045800  7.9518415225526509 21.1611066746890231
  5.4225210371735200  7.9518369142823495 18.0412251526130056
  2.7501960575920399  7.9485204957564504 19.5888548019361615
  8.1539683483709791  7.9485237215456594 16.4690390464457010
  4.5177808420703398 13.2722954199760501 19.5606960334055415
  9.9217594480624598 13.2720991076612691 16.4411917020408218
  3.4929704885723800  2.8817297586506099 20.7797998736517826
  8.8968453425452996  2.8817683145121200 17.6599585977310660
  0.6819601849262600  2.8822895098830501 22.4020170674224630
  6.0856333709118600  2.8823905846116302 19.2823158106839010
  2.7352982403101000  7.8262875085300401 22.7293100338072627
  8.1390315160068187  7.8262936528904401 19.6094894737370211
