Ba Si  O 
 1.0000000000000000
    10.8642090000000007    0.0000000000000000    0.0000000000000000
     0.0000000000000000   22.6101300000000016    7.8216999999999999
     0.0000000000000000    0.0000000000000000   39.1084999999999994
 Ba  Si  O  
  72  24  18
Cartesian
  8.1846791786794810  0.5380973533635001 15.8474137921849998
  8.1609994401009907  7.8577106883702008 15.6370882009679981
  8.1085730045085000 15.7527791901342002 23.4535679983879994
  5.0079354694968901  1.5552947695776003 17.9522275523439987
  4.9481208285739502  8.9586028922988010 18.2122262573169991
  4.8962902948451106 16.6240704981414034 18.0319057241209997
  0.4732944848330400  1.5532763632725002 17.9333407280049997
  0.5043231003054001  8.9305118406855009 18.2106434581050003
  0.3001899366578100 16.3856114054886000 17.8366107027089988
  4.9793401109142605  2.3501443934730002 14.0248935542449988
  4.9288621712059202  9.6953031055563006 22.0834878960219996
  4.7672351166287399 17.3504928246047996 21.8629558466919995
  0.5382312743732101  2.4303906841598999 14.0361406113259992
  0.4681951510547100  9.7150266002592005 22.0596816134680012
  0.5382627805793100 17.2969389228894030 21.9290830014359983
  8.1653303483767505  3.1651498177569000 19.5700238659559993
  8.1501297989964918 10.6662761458971005 19.6070712697889995
  7.8845632272849597 18.3430883844672010 19.6766082946479983
  2.7331533841027200  4.4472382468977001 19.3950685496579993
  2.6972140375202702 11.8647301563705021 19.4180288371399996
  3.0866623597644600 19.9982765171952011 18.7198075006830003
 10.5395871955746312  5.1589802681546999 17.2160641660079996
 10.7506354282507210 12.2945084816391006 16.8196011997390009
 10.4133190128930302 20.3576699599764019 25.0445627094309984
  5.8044388683748505  5.1515499011328005 17.1917931962570023
  5.6246498983281912 12.4201570438725017 16.9396872123199991
  5.9391594056584500 20.3716902754881026 25.0950630461789999
 10.3472189924952307  5.9816634142826999 21.1472799173830026
 10.3180406604576618 13.5728045136750026 20.8481457275449991
 10.6758902135411713 21.3776359866090004 21.0754306415699979
  5.9393413811592000  5.9832712206270013 21.1121179343350036
  5.8958090389066502 13.5635033844969008 20.9225784326510009
  5.7732759712792499 21.2106782646630023 21.1972008225950006
  2.7354141173535305  7.4296746997194001 15.0080799145559993
  2.6933776680381900 14.3788414037931016 23.2040149391139998
  2.7504789727633803 22.0011365491098019 23.4666292205670004
  8.1820518870170105  0.6086221925556000 23.4616687766440002
  8.1247702364224192  8.2293678656634004 23.7115381454659975
  8.1676709335637110 15.2121002121273019 31.9074562751520006
  5.2396303708828507  1.2405070434630001 25.8428326620600011
  4.8852155374746902  9.0281459996463003 26.0674129104419983
  4.9109740338032406 16.6233912898361993 25.7815120201829977
  0.3425897937642000  1.4037340939590002 25.7283178899550009
  0.4585319803596600  9.0409804138395007 25.9963417373450021
  0.5123966199395701 16.6227731288820024 25.8174062707849998
  4.9770383109534304  2.2539208805229003 21.8799200971709986
  5.3535552911511903 10.2944575322757004 30.1037826580129995
  5.1153547927739407 17.4573078268521016 29.7068652509740012
  0.5126363930322000  2.2403113910733001 21.8318133570570012
  0.1514936809166100 10.1663082896643004 29.9764079942870012
  0.3655201192058701 17.4641876372085036 29.7313638321950009
  8.5172706409009802  2.6065138745040004 28.2045155868050017
  8.1269087473219805 10.7559282506640006 27.4866372232099998
  8.1675859754493310 18.1716047927991013 27.5289210987589996
  2.4526625398458002  4.2769310602935002 27.2567332129399951
  2.7170188386747305 11.9123371416933015 27.3218262607270006
  2.7319968890546700 19.4504606516538026 27.3541991037720003
 10.2004273412338211  5.2589717592693006 25.0656369503920011
 10.3625223172926297 12.9196403650194007 24.8370037317210013
 10.4108675041321810 20.2572129262850993 32.9060801683189936
  5.9737558273664106  5.3135709272946006 25.0002002953240030
  5.8983712539572108 12.9012187616019016 24.8591191973859971
  5.9717558351316002 20.1812112353031026 32.8956198178239987
 10.3280515944828011  5.9766959687217005 28.9003671828129995
 10.3784907489650102 13.6592930090523001 28.7124294870720007
 10.4399467545836711 21.0599600424882034 28.9694378779179971
  5.7252135797999699  6.2244939494697009 29.0925072433129976
  5.9375179323206400 13.6857509309757006 28.7150969214229974
  5.9057306691338098 21.0650106933276042 28.9902759035390005
  2.6769735815849098  6.8572436378496002 23.4653453667290002
  2.7327331564986004 14.8272724080078007 31.3033410182919987
  2.7528190147398903 22.0538312658852007 31.0853860626779976
  2.8088718146544900  0.0794827465968000 12.5478688339019993
  2.7194195029374604  7.6748621148576008 20.2489301399990005
  2.6021341741833304 15.2256341837427023 19.9007457565930004
  2.7490356625977301  3.8049140728680002 16.0906823501599980
  2.7366424248230703 10.5731061310035006 16.3982566236000018
  2.6711826322616403 18.6590694732431999 24.0281598575129998
  8.1878799919350609  3.7061846792100006 15.7032848906249995
  8.1350733090275700 11.4807882171443989 22.9071846310109990
  8.1635814280119305 19.0533324846117011 22.9317006546230004
  8.1624780589458901  7.3418768517138000 18.9587738890069986
  8.0430959378547602 15.1337059171887010 18.9193957750079989
  8.1705080131019709 22.4515310170137035 26.9998438683680000
  2.7386147133249303  0.1568925964752000 19.9400982936329996
  2.6036038843768501  7.4972984331312000 28.0398300061730019
  2.7304569960710103 15.2436237075759013 27.9999748466909999
  2.7365081431998299  3.5506206539736000 24.0086637227440001
  2.7030628930775098 11.1242502076809018 24.0325391491259985
  2.7556263263454901 18.8706661487468992 31.2550417861409997
  8.1019250863793104  3.9410110022757001 22.9131440624579987
  8.1708490406224819 12.0480259582545006 30.5300442676399975
  8.1805411101134702 18.7808815486182006 30.8477894104579988
  8.0399297814258901  7.3976436068523004 27.0400350480820002
  8.1491946078857698 14.9423077752192004 26.6781138822679971
  8.2410158603752510 22.5301654315329003 34.3856881615209957
  0.0584599827027300  0.0444994490556000 15.5483199623189989
  0.0023202691161300 15.0512691571074022 23.3509386123010003
  5.4592152644227809  0.0249988902345000 15.6041456252949988
  5.3793970073206800 15.0337587419288994 23.3817838773359981
  0.0495515486069100  3.7847062691805005 19.5653439081950005
 10.8136727194893307 11.3855041550958020 19.2742210945819998
  5.4125923806360001  3.7897105692534003 19.5576213873509985
  5.4743315075411996 11.4044532528462010 19.2962609244079992
  5.2495725344650204 18.7411498976757009 19.5431579690130022
  0.0293932260915900 22.5742230786483020 31.3270360762719982
 10.8165330484348505  7.5805966391655009 23.5594257911500016
  5.4885855670333807 22.5520373407884023 31.3851350381359993
  5.4289889707850705  7.5659638152320996 23.5946896909489965
 10.6825423687118715  3.8689172461629004 27.3855623217809985
  0.0392209895529900 11.2050542902749015 27.6453190233559987
 10.8485873538789015 18.8217939005492987 27.3771397587869991
  5.3864383184577607 11.2188722451230998 27.6685001174290015
  5.4769011102538805 18.8279804843199017 27.3695645987709959
