Cs Sc  O 
 1.0000000000000000
    12.8636219999999994    0.0000000000000000    0.0000000000000000
     9.6477160000000008    5.5701120000000000    0.0000000000000000
     0.0000000000000000    0.0000000000000000   47.2639629999999968
 Cs  Sc  O  
  12  12  24
Cartesian
 12.6496551602591403  4.0335058119743996 24.6503724390854408
 19.3692270502584378  4.1049320265638398 25.7938252421877650
  9.7313850415382390  2.0765393132313599 19.9774671292106873
 16.3667923134575020  2.1202660292582398 20.3817153321100584
 13.7216277522278407  4.5440590472294398 33.2987895782206706
 21.6427454598551634  5.2678113828460802 29.3092356255528870
  9.2835084341110203  1.9540811250259200 23.7099831086974184
 16.1615502428377411  2.3762316140390403 24.2237669637681776
 11.3110524226145799  4.5925367902867196 16.8458136575862873
  6.4777862388285605  0.2399559131692800 18.7859407314221691
 13.3201280305671794  4.1640437261414398 28.4690246279415184
  5.3118431393734209  2.3729873580057599 30.7619147971412374
  0.1254871688994000  0.0476349851116800 22.3444827895021980
  6.1624365726998800  0.2268009239577600 22.7742445522685983
 13.1328251812345798  1.5544422436607999 18.9671356410960108
 20.1153003825308012  4.3390888404288006 18.2964335383067294
  9.8517559562549604  2.1888390653779202 27.3715303571811255
 16.1628734148043804  2.1555691763097600 27.8025077490758896
 13.1406643782491397  0.3761657052825600 26.0442231012069492
  6.4203090248882404  0.3544659971596800 26.5716903462058411
 12.8139161188898001  3.6891667240396799 21.0859077338018785
 19.1067868808460197  4.0424053470201597 21.7070696411330779
 11.1817708531276399  2.9541995249222399 30.9667922607554900
 14.7483883278166985  1.3256835367372801 31.2874229508737756
  5.6761385809253602  0.4243590941222400 24.7134391081144855
 13.4340283138535987  0.7433369051097600 24.1350298185149370
 12.5337940455432211  3.4840526969472001 19.1611296319502493
 18.7761690846798395  4.4727789923788803 19.7502262488633562
 10.1843776278970601  2.3346188112172799 29.4290511896767768
 15.5626064459364795  2.2142533140902398 29.7068545850018779
 11.4307404977672800  1.1929773450720000 26.7197503819788942
  5.0730991774166201  1.2275154372403199 27.7973375441633195
 11.1098211960834998  4.1441478430886400 22.0325604845666589
 17.5577984929925996  4.8130002079142393 22.7133964536627708
  8.2212984790347203  1.2642941069606399 26.7101406730217370
  1.9219030781020801  1.0998119859667199 26.8611882638960253
 14.3601018391218993  4.7764642836748799 21.7900755582329388
 20.7836809789403034  4.8922789992979201 22.3654816956234690
  9.8230423238886804  4.0028807234860802 26.5684083366151143
 16.2403491740532786  3.9801845780275200 27.0019904455108062
 13.2368089043273187  1.6494166637414400 21.0894667102157776
  6.3409430897572197  2.0596972997836800 22.0092517885735788
  7.7919091135391998  2.5955606783577601 17.9629045126857392
 14.8387062243962404  1.3859698058323200 18.2027922842526095
 11.3094181403895817  4.8528616561209601 31.1014624158106479
 12.8238398374053606  2.1112456784832001 31.4979007214638962
 11.8321268556854395  0.1741972318387200 18.2651868597277982
  3.2586513380014006  1.5451476762720000 32.5868061848679247
