Ba Ir  O 
 1.0000000000000000
    13.4909719999999993    0.0000000000000000    0.0000000000000000
     0.0000000000000000    8.6189160000000005    2.8729719999999999
     0.0000000000000000    0.0000000000000000   28.7297200000000004
 Ba  Ir  O  
  24  12  50
Cartesian
  8.6720491465713589  5.8358909499165597 13.8368050458063205
  8.6700542365417199  2.8972279280016000 10.9453654094120001
  8.7023664635789206  0.0000312866650800 13.8413502886183597
 11.4206350251857600  5.6054071734326403 11.1043563694052807
 11.5520284582436794  2.8815858021098402 13.8892117324904802
 11.5715695915467993  0.0641292168763200 10.9551970643526424
  2.0717666131170800  5.6055361986051606 11.1044105823869206
  1.9388598977299196  2.8814926316278799 13.8893484572279586
  1.9207251982578000  0.0636220798588800 10.9557089130441607
  4.8184311074992392  5.8354275969923997 13.8371843930292009
  4.8206625142680402  2.8970144374522802 10.9451345086523606
  4.7879481213555204 -0.0000230986948800 13.8411207094258391
  8.6400662341606793  5.6632551828956403 19.6840216822926806
  8.6964759004745602  2.8916545059702004 16.7473442862457986
  8.8501244456728401  0.0857160677007600 19.5283681389529207
 11.5390860291651993  5.7310757953056006 16.7597128616516002
 11.5632691361140783  2.8704798978980404 19.7086726439442792
 11.5636250279554389 -0.0586675821854400 16.8110717179879217
  1.9523215943206798  5.7309990007640401 16.7601285519702827
  1.9287558342505198  2.8662162063420000 19.7090553525444001
  1.9270743195004401 -0.0585403669852800 16.8111270514286417
  4.8512186214800002  5.6624874098583602 19.6834457088661203
  4.7960456725693597  2.8912403670564002 16.7483108976752000
  4.6487009189477995  0.0748275325504800 19.5240215334249605
  0.0000990237344800  5.7690572895777601 13.8699861486231200
  0.0004188946806000  2.8450860718764002 10.8779427898132006
 -0.0000372350827200  0.0024615624096000 13.8869434061776005
  6.7452304809903190  5.7934448571564001 10.8954351671324012
  6.7453711918282790  2.8704301667527203 13.8818014183514400
  6.7451727396301600 -0.0016383697424400 10.9024929388773195
  0.0000284659509200  5.7858465931891194 19.6758450028726415
 -0.0000312990550400  2.8659334197080404 16.7611194400130792
  0.0000190222705200 -0.0419821365118800 19.7610256060520406
  6.7454514631116798  5.7627718588956007 16.7584671409923978
  6.7454965229581605  2.8333103055130802 19.7483726351479625
  6.7458668501395591  0.0038213687869200 16.7822791086308385
 -0.0000222601038000  4.3186439544836395 12.4440061188218820
  0.0095717097242800  1.5104150392872000  9.5851757776271995
  0.0000214506454800  7.1934730435844410 15.3186499012286816
 11.4083823895056398  5.7958515170710800 13.8855615928347600
 11.4262240650659184  2.8842833504395200 11.0086783000242399
 11.4527369279694806  0.0002036649850800 13.8853133680539607
  8.8359543381423595  5.7348290746561208 11.0522620035072414
  8.8199393401908797  2.8467533149874402 13.8671705786036785
  8.7829199781131599  0.0013740275887200 11.0130305653070408
 -0.0000083644026400  7.1318128013854798 12.4409206618127595
  0.0000118720553600  4.3028481533195997 15.3272645365004010
  0.0000010792777600  1.4681025397250400 12.4689267088956797
  6.7340947628820800  7.2408563099968806 12.4759469308965603
  6.7455229652632793  4.3057757405173200 15.3267978796584394
  6.7348185535298803  1.4578159496682002 12.4631161517554006
  4.6550486910932403  5.7348806157738004 11.0520872693501993
  4.6709874650529200  2.8468549320070800 13.8672708165967595
  4.7080039940265204  0.0013754928044400 11.0130419710058796
  2.0825928483276401  5.7958134214623600 13.8855618226725195
  2.0648067555720000  2.8844181502857604 11.0089183081051196
  2.0382360163985598  0.0002351240284800 13.8853603411461606
  6.7455210765271989  4.3003784029398000 12.4549732872158003
  6.7455788178873606  7.1509486048778408 15.3038525152940803
  0.0000493769575200  4.3032010979298008 18.2016177177894001
 -0.0104621138762800  1.4469014715807600 15.3393571916753206
  0.0000125466039600  7.1359115268892799 21.0581101492893588
 11.4375676790526786  5.7562816427692809 19.6493994679909605
 11.4158603003755186  2.8480781285658003 16.7433025892361975
 11.4372894952100399  0.0317780294811600 19.6251157583501161
  8.8028716416942405  5.7732584078036409 16.7776240895586781
  8.8209088014387991  2.8130120688198001 19.6206179483057994
  8.8784997372609986 -0.0298840226901600 16.8271795526408816
  0.0000105229581600  7.1845731509228408 18.1584476935446801
  0.0000125466039600  1.4828295091159200 18.2048778802258404
  6.7454946342220792  7.1495150205795603 18.1883752130309198
  6.7454072127235198  4.1750916852348006 21.0318647456372041
  6.7557859523928396  1.4465636100735602 18.2135812328729187
  4.6882965170386397  5.7731032673156397 16.7774761315006806
  4.6699678173891597  2.8118985910617602 19.6202640268851205
  4.6124931737455999 -0.0298673881822800 16.8272144017912417
  2.0533909648850397  5.7563305982121609 19.6494321624123174
  2.0750396578339996  2.8477019128824002 16.7428654665464016
  2.0536000749510399  0.0316506419026800 19.6250178474643597
  6.7455216161660800  4.3156969747249203 18.1898859940868398
  6.7455268776451600  1.4834912694864002 15.3307026220928009
  6.7454981418747995  7.2705279625968009 21.0915064951684030
  0.0000118720553600  7.2555333758641201 23.8368974794836390
  6.7454901822013200  7.0692522272211606  9.6548508360037193
  0.0000013490972000  1.3667315039476799 21.0170933026397613
  6.7455248539993597  4.3864316426344807  9.6425992480177598
