Na Zn  O 
 1.0000000000000000
    12.8220589999999994    0.0000000000000000    3.8925860000000001
     2.1633640000000001    9.5724719999999994    2.4877120000000001
     0.0000000000000000    0.0000000000000000   33.3514229999999969
 Na  Zn  O  
  40  20  40
Cartesian
 10.4500458934718807  6.3894505538354398 18.4254024547359698
  2.0201307619932498  4.3704255253932001 17.9231161440945783
  5.1938067428177304  7.9460020826877598 15.0929360000625508
  6.8443612823397793  2.5303009047825600 21.0436528657513691
 11.3202681029104788  0.5843287707566399 24.2406354943599922
  3.6837973036553797  1.9949262344575200 21.0535311686413920
  9.7541104508283887  9.0781757744932801 26.3191621718814268
 11.0330015049067107  3.2117145480856797 21.1040543854309988
  2.0380155287919099  7.3993059540035997 13.4414356947048095
  6.0022528473347592  5.4063333653565593 17.0062982117140393
  3.7927408074598503  9.3562903555430399 24.3281706256396184
  8.3676310379743306  7.0892604781034398 16.5376505185072595
  9.2371702180843194  1.2768584471697599 22.3636944237528574
 12.8493116479783698  5.1283443751394397 19.7475498913185206
  4.8507752993959796  3.2898011269031997 18.9768492042564603
  8.6509397196324898  4.4511307496510391 19.6774699009210465
  0.8948285975406700  2.2531576424666397 19.8748884653748981
  3.2058155331699698  5.6900501399195997 15.8809239352946197
  4.8134874336689597  0.2344787546119200 23.4720081378117484
 12.0811184879068403  8.1592448825159991 16.9366397316232700
  6.8334998279674695  7.2126103950482401 19.3837364044105698
 11.5968491510365812  5.4546212217369598 22.9474916259887678
 14.6518379244592705  8.7755570052695990 20.1712690304474904
  1.7728242399382599  2.9929677683068796 23.3975345769289582
  7.7656602915378485  1.5020605191664798 14.5539050963081600
  7.6189102092080194  0.0027751553575200 19.7144198962857402
  1.6605689390211902  7.5396276723549605 22.0026499931939696
  2.8248592900689600  1.9638883555200000 16.7187361911249575
  6.5998673763250899  6.2241935031712803 25.0656710255579753
 10.8968508159546094  3.8020726360562400 17.0586624063346584
  7.1935159783572997  8.4501054014831993 23.1017081710082763
 11.9073461372954181  6.1732063054115995 26.2436383079729794
  0.0305900093717700  0.4360132724875200 17.5143619593403166
  5.0917210360850795  4.6876511210911200 13.5283635289865494
  8.0878403096654985  2.2031494214184000 17.8402589541900554
  4.0395292788932897  5.6953690839864004 20.1674055028103609
  8.7856684446292181  3.8450008653638394 23.7546732795907474
 12.0607611492580400  7.6513017580271994 21.0765687211561392
 13.0611346111907807  1.4310461783872799 15.6884532127025800
  5.2034797544949098  0.1177338433471200 14.8964494965151601
  6.4795678567895392  5.7218387878360799 21.8409702993596397
 11.2792801998032406  3.5949782349935999 24.9563173837417480
  1.6415051590912200  7.2326016412977596 18.8021340420656067
  2.9492015076695699  1.9944716377622398 13.6190011004378704
  9.6745485886147495  9.1234279128283191 19.1873973498021897
  4.3195394643251097  8.5893535670997601 21.2185380639226189
  9.3065005735510002  6.7641647788259993 24.4850480050345567
 10.2805323255529490  0.9866819770516799 19.2318108564131691
  1.0011104272814799  4.4964994806950394 12.9747816177946884
  5.4087184587117001  2.9464670924488798 15.7623110671725595
  5.2124568346245903  0.4265868764102400 18.1015406834119794
 12.1660996169376308  8.1064720358294391 24.0931072137306899
 13.2051754910769290  1.9201794911207999 18.9466502070000580
  3.8949954650142500  5.6594240687275201 23.2698545289196659
  8.4248309062631002  4.0605755193712794 15.8255744770400604
  9.3989753646291891  6.6687086623903191 21.5570957810016601
  1.4455870397426001  4.7094852596500800 21.1423681103112173
  4.7052669478116194  8.6387236871644788 18.1786548493068167
  5.8354625611043698  3.1435296385802398 23.9127011414879078
 10.3706419056728496  0.8815812121771199 16.3055611507998393
  6.1438566302081696  7.7187820378687197 17.1787359244229094
 10.6888758304320710  5.5404451339473599 20.6089593763930594
 13.7947259577449692  9.2654803341172798 17.9650139267927358
  2.7118485160211199  3.7832522945817595 19.9783515803293845
  6.9719752562999000  1.8633841959751198 23.3855283980295461
  5.4803538176815394  1.1392437281752799 19.8715172422538302
 11.9724361598998890  8.6572667141251198 25.9357470561334296
  0.5805426916360300  2.8030606449955195 16.7131184952919298
  3.9339667389353297  6.5430556086823195 14.0128012891566485
  8.9021109875086406  5.0293157164286395 17.4223952618470079
  8.0382533333329604  7.9490356947892797 25.3053849979999264
 12.7045182274002411  5.7842609734727990 17.4056725564663886
  0.7189474739013100 -0.0622492110676800 19.7280580190989916
  4.1553760800091597  3.8820833774704795 16.9259047465826811
  8.9961538270706392  2.1223886768229598 20.1730152110555103
  6.2865566502408106  4.8444982764796798 20.1779549909303206
 10.7835907696330491  2.6396771185511998 23.3546663335101883
  1.3821786922982799  6.5173661570253589 17.0332035673962388
  2.9417376310088903  1.1419536949984801 22.9166059255073584
  9.8635428194480301  8.5904517210876001 17.3384323356598706
  8.0553830689767700  5.8736027691431998 22.8976337668907206
 12.9564771555871197  3.3429826224194401 25.7309277639185083
  3.4096803990587201  7.8137726449910394 19.4583783257516174
  4.7431974901437099  2.1831814362758397 14.0083753415895682
  9.1495584711918010  0.0821310439622400 17.7190085527111805
  5.0624252792946001  7.0493273795599194 22.3890744016550691
 10.1561558731880588  5.1482352061576799 25.1788161294139670
 13.3043179418260209  9.0702817397337583 22.7226561761708368
  1.7613741447465099  2.9630848081161600 12.4458138751062695
  6.3028845452652700  1.3002235111756799 16.6295560206371782
  5.6074750958732409  9.4197245429195995 19.9324338018279583
 10.5261382538662307  7.5724239186741595 23.0728069161210101
 11.6259778155329201  1.7666442195947998 17.8949948660381501
  2.0943747273709001  5.4731426149108797 22.9007937756640594
  6.7420345280520806  4.2805882585720800 15.0537628553975900
  8.5353680951375885  8.1589890103394396 20.5584961809147480
 13.3749696883631195  6.3580978362938394 24.1685064823778184
  1.7937670468765601  0.5898889411178400 14.4941045498229979
  5.0791341912652399  4.6805696934796801 24.4402905932231889
  9.5424463835168805  2.5051990114569600 15.6096376046688690
