Si Bi  O 
 1.0000000000000000
    10.2460039999999992    0.0000000000000000    0.0000000000000000
     0.0000000000000000   10.2460039999999992    0.0000000000000000
     0.0000000000000000    0.0000000000000000   30.7380120000000012
 Si  Bi  O  
   2  24  40
Cartesian
  0.0000003073801200  0.0000536890609600 19.4126274420740437
  5.1230305863511596  5.1229780243506395 14.2856825748147607
 10.0105864841739205  1.7236065636092799 16.1959218431047205
  4.9655926405479995  3.2085768292358798 17.8969526688805232
  5.1741547651298392  3.4623650203937997 11.2143905187343211
  1.5313336386466800  3.1650517017838395 19.1159942532096032
  3.3014513226537199  0.1551825954026800 11.1894994913769601
  6.9445283943167997 10.0908569582311998 11.1894890404528802
  3.3097072452967997  8.2487079193633992 14.2655971282534804
  1.9572939391999198  5.2925465216695198 12.2152543086476406
  2.0053055868834795  7.3754300352191198 19.5201625327753234
  8.2886813719888792  4.9535022533679598 12.2152417060627201
  3.3032144550220401  1.7142147689627600 14.6050944748519207
  0.3581456886386800  1.9234678840543598 12.4519468372114801
  5.0718084557742396  6.7836777095013199 11.2143883670734805
  9.8878307496105595  8.3225675711779203 12.4519751161825205
  0.2353914909759200  8.5223713090805191 16.1959999176552003
  6.9427804260343997  8.5317902556376399 14.6050437571321208
  8.2012242482659587  5.2898254903872388 16.1908854198385193
  2.0447472719013597  4.9561768702521203 16.1909349080378391
  8.2407750532264394  2.8705300094237196 19.5200706261194412
  6.8991556049634397  0.1236394524083600 17.8339535763859196
  6.9362727790538399  1.9973451589957598 14.2655832961480815
  3.3467454226963600 10.1223576827689588 17.8340362616382002
  8.7146934148623192  7.0808471742151200 19.1160283724029192
  5.2804840036203595  7.0374445889709190 17.8969901692551616
  0.9946563508499600  9.2415106656297183 20.2489110017158822
  9.2515241877989585  1.0044066531764400 20.2487548526149226
  0.9280073243504399  0.9938204818436400 18.4186775531998812
  4.4160396093646392  3.9906436587117198 13.2739673445250812
  3.1129402180597201  7.2210819768422398 12.3463494707866808
  7.1330342734487591  3.0249695646163199 12.3463485486463203
  3.2670987253625996  3.2007699889481196 16.2491539322863225
  2.2324711760080396  2.0519464216918797 11.4466739868568812
  0.1280163403970800  6.4367619486267600 11.6720911978588795
  5.2055639928518795  8.9736798136895999 11.7120324780317997
 10.1179611224525594  3.8092797566679599 11.6720841281161203
  1.3280583496687999  2.5375183833572796 14.3057649475748399
  3.4571006235385999  5.1298588307968798 10.6902345650458788
  5.0404200274403195  1.2723616866850400 11.7120349370727599
  3.4186786208387998  2.2954896334501997 19.0502825311560002
  2.4960916375244397  5.1085875117326394 18.3105412269838794
  6.2859675118171996  2.2001510785303999 19.4717818240276799
  2.5543649655941199 10.0404823771051586 13.1334620473923600
  8.8726506281482003  2.7608220486541599 14.6218562201756406
  2.4937643601758799  0.1049258433226400 15.8474173368499223
  6.2547254988804388  4.3486322761090799 15.2069253848643609
  3.9912085209122399  5.8974075849049203 15.2069702623618817
  5.8299211524984793  6.2554046040255598 13.2739728773672390
  9.3181203449178387  9.2520278813555983 18.4186692539366383
  8.2451374943495193  2.0934964269528398 17.5143670844406003
  2.0008739852333997  8.1524799088363586 17.5144322490260400
  8.0135159180853606  8.1940989721642801 11.4466853599213199
  6.9789255617253190  7.0452545030598799 16.2491563913272792
  5.1771616599237191  1.3200583722056400 16.9225260283281607
  0.4914893363555199  3.5145859314406400 17.1891613765215610
  5.0688459261776799  8.9260076161185591 16.9226013364575607
  6.8274375729049988  7.9505428504409190 19.0503080437059609
  7.7522413816447999 10.1410620704510794 15.8473743036331207
  9.7544824911919186  6.7313177601801994 17.1891871964516412
  8.9179136827987193  7.7084776247595990 14.3057575704519611
  7.6916117800352399  0.2055587134293200 13.1334476005267220
  1.3733696629981600  7.4851749840631197 14.6219315283050406
  7.7498792678826396  5.1373846231949205 18.3105590550308399
  3.9600629228731199  8.0457564041119198 19.4718389967299998
  6.7888609580048387  5.1161879974998392 10.6902370240868407
