Ba Ag  O 
 1.0000000000000000
    12.2597609999999992    0.0000000000000000    0.0000000000000000
    -3.0649400000000000    9.1948209999999992   -3.7358600000000002
     0.0000000000000000    0.0000000000000000   33.6227400000000003
 Ba  Ag  O  
  18  18  36
Cartesian
  3.0743169855706798  6.0267952603798198  9.4863376836522004
  9.1932486298833904  6.0164375703679500  9.4615514480274001
  3.0411755660320798  0.1672468059260400 12.9653765109726002
  9.2252932486996801  0.1673792113484400 12.9626181013829989
  6.1299022853039302  3.1456203514966399 12.7935893398346003
  0.0083572557262002  3.0580696565880996 12.6070625198595998
  3.0606322750246000  6.1178221493156197 13.1127735223629980
  9.2012069034433992  6.1250788859452392 13.0630030878919996
  3.0649663326425993  0.0000394457820900 16.6557287674787986
  9.1948293624827890  0.0000252857577500 16.6557802476296004
  6.1234919607084199  3.0697581130432998 16.5125023207579993
  0.0042998270403298  3.0770435375144398 16.4627562067355981
  3.0565894967517599  6.1367458265192996 16.9682811634109996
  9.1947960884575686  6.0492210610059791 16.7819082235094008
  3.0887029111073097 -0.1672484609938200 20.3460670145099982
  9.1643501515642889 -0.1673418803751800 20.3488553109796015
  6.1313838476638303  3.1784441154506498 20.1139337869785990
 -0.0093148189704499  3.1681140099017795 20.0892240991252038
  3.0730117613184396  3.0570305498668899 11.0679898899687998
  9.1934433876268375  3.0554020551195795 11.0664906146336008
  0.0044760503022299  6.0615254785199699 10.9447672924110009
  6.1311145179247699  6.0659457967675099 10.9176093460652019
  0.0017789216970000 -0.0100592261222100 14.7445750167132008
  6.1336346530843295 -0.0102867059937500 14.7330961759186003
  3.0580248477991496  3.0815166340345197 14.8077685082399988
  9.2035602653930297  3.0697967312914995 14.7922588239398003
  0.0068903051465097  6.1133605463217897 14.7677447830746011
  6.1211192283365090  6.1250439456254391 14.7832837565171999
 -0.0037431499457600  0.0103997103438400 18.5784076837029986
  6.1281303580950599  0.0101737016436600 18.5668818457895988
  3.0604692003529896  3.1332158023819598 18.6307628849907978
  9.1935665695717503  3.1288231605456298 18.6580783725528008
 -0.0080855745918700  6.1376998811462595 18.5074841748158008
  6.1312555684685188  6.1392632765608894 18.5089712338888006
 -0.0051050622243700 -1.3404270739618600 23.2591746440570013
  6.1350202879898204  1.3401481950409300 10.0523670598264001
  4.4760458251858894  4.6588879007398898 11.1057620123122014
 -1.7030126526205100  4.6565021205350199 11.0819329040193999
  1.5584896829636090  7.6299460467228899 10.8637355924046002
  7.6735022493147795  7.6136054705827396 10.8406368073832002
  7.8261412893494686  1.5757588628948100 11.2481284640610006
  1.7192258981531798  1.6456726038504099 11.3567015217250002
  1.7085816876558393  4.6540595163363703 11.0916494275762005
  7.7905779518834191  4.6555374918639103 11.0845913419954005
 -1.5557144244341901  7.6288256577840396 10.8438574549306015
  4.5959332196337694  7.6182061912182997 10.8614158101376006
  4.4445666902605794  1.5786582658007400 11.2477785634133998
 10.5502110544409202  1.6450384370460398 11.3627026204360000
  4.6251458179055991  4.5715360898095803 14.7624396750816000
 -1.5602165662352701  4.6233234364904101 14.8130683486703987
  1.4760613353220302  7.7106731730191189 14.7195260380546014
  7.6317289240932489  7.6897835511374293 14.7693620742271978
  7.6929991182902207  1.5050707341145899 14.8061474065102008
  1.5888897693724098  1.4841910426395797 14.8559296462988009
  1.5324302525292000  4.5973907311348494 14.7876987585066004
  7.6623102314904594  4.5974312802954600 14.7877138887396011
 -1.4919416289646099  7.6784476241193698 14.7685478808987973
  4.6406511911747188  7.7249768204631399 14.7131163109767993
  4.5568868796232200  1.5164183385553198 14.8069434062004017
 10.6840179430568405  1.4698662471072599 14.8625090187792015
  4.7679440497458900  4.5382424705024693 18.4932425534753975
 -1.4112463430869799  4.5359262031443590 18.4697762345471972
  1.3457583998420395  7.5491133638815793 18.2187287961389970
  7.4985648080591796  7.6189986928402895 18.3274929430419995
  7.6512494850587487  1.5813197067391900 18.7350735131877997
  1.5065966162442599  1.5648814816000198 18.7121273754059985
  1.3563437328360797  4.5406860861314300 18.4836264871940017
  7.5342217488002294  4.5392114207394494 18.4909226217740006
 -1.3795943148824898  7.6161439767644197 18.3277863574864028
  4.7744851125612700  7.5497172797248595 18.2128966703757982
  4.6205893960125799  1.5660297308464999 18.7318597022641988
 10.7286980012893896  1.5767285487174700 18.7143793891726027
