Ba Ag  O 
 1.0000000000000000
     8.9983050000000002    0.0000000000000000   -0.6077190000000000
    -0.9408710000000000    9.5206000000000000   -1.2031210000000001
     0.0000000000000000    0.0000000000000000   32.0183210000000003
 Ba  Ag  O  
  12  12  22
Cartesian
  8.0467761437057508  2.8196175637900001 17.7637491967851773
  8.0462484202465809  6.9483601846619996 18.7091180235503138
  2.2221540160311499  0.2127173377100000 18.6500075196850403
  2.1611725155720198  4.7278240909280003 19.7619526580820484
  6.8490928831964908  3.8067834434060002 14.0385474535305708
  6.8855797394877998  8.1901556537499989 15.2045936138865319
  1.1719887492399401  1.3304401571860001 15.0002520774187698
  1.2072531554589403  5.7156646954659998 16.1681146893285117
  5.8958808687862696  4.7886064575080001 10.4475255813996508
  5.8409679288924989  9.3088785170499992 11.5598058303579911
  0.0139531110555600  2.5754911954440001 11.4985701999440710
  0.0124664129036399  6.7013485984859997 12.4358499704625416
  4.9784987612052403  2.0826951332259998 20.4560152668071389
  3.5725288500130898  7.4073815375559997 18.1840263334035797
  6.6882124526496112  0.1766294082040000 19.3038288424460411
  5.6549923356233700  5.3729504195880002 16.9067053221934920
  3.5695256420417301  3.1012418625020000 17.0509148713809573
  2.4996481983884902  8.4079223368760001 14.4996596157435818
  5.5561377294939902  1.1109589092059999 15.7083339399103092
  4.4894418099157596  6.4191563959840003 13.1544479162702714
  2.4007441243764402  4.1478418013259999 13.2970488071990012
  1.3717968124198001  9.3442451659000003 10.9045101525041002
  4.4859088932146296  2.1127779442820001 12.0209169985012299
  3.0775236633630696  7.4292467379280005  9.7719092485130510
  1.6202884072122601  2.9886776189639996 17.7320325975082689
  1.5068692900294396  7.1062754254760003 18.5402558876403702
  5.6154627790351199  7.3079381089080000 17.5638449589379526
  8.6201293677269017  0.2192322842900000 18.5231290869429515
 -0.2116895595988600  4.6658009997559997 19.9372004648289902
  4.6605857231610299  0.0740504651520000 19.9050812650492013
  3.6834588024336701  5.1516416924380000 17.5298200138622420
  0.4559699253167800  3.9321265218820001 13.9720320134419413
  0.5012069032782401  8.2779794757160001 15.2155988712563985
  5.5639984773270594  3.3671100442439998 16.4329608026048817
  4.5179131153895300  8.3884351919720004 13.7949449232343682
  7.5520477083232205  1.2441651464280001 14.9878163582740793
  7.5940259959004797  5.5913643131019999 16.2320037236610801
  3.5400235223187302  1.1274510637619999 16.4159097394288729
  2.4954189032355099  6.1545855864040000 13.7749224681861904
  8.2644505924092400  4.8594004966359998 10.2731527824714810
 -0.5601520723403699  9.3030092575619996 11.6831779395644197
  4.3725598390348903  4.3704981694059999 12.6760967924341976
  4.3393888046151501 -0.0758039692600000 11.5090906079825910
  6.5486954673455600  2.4161568139940002 11.6641058682910224
  6.4360663072726396  6.5296955126959997 12.4732099950549902
  2.4466416444406001  2.2144744229200000 12.6423917132731312
