Rb Ce  O 
 1.0000000000000000
    12.8801559999999995    0.0000000000000000    0.0000000000000000
     8.6138410000000007    6.5895539999999997    0.0000000000000000
     0.0000000000000000    0.0000000000000000   33.3624119999999991
 Rb  Ce  O  
  16   8  24
Cartesian
  0.0000082559696700 -0.0000282691866600 19.5751076570085587
  6.4400767764148394 -0.0000888271879200 19.5740046956678384
 10.7469621040580705  3.2947590105175797 19.6458733363499967
  4.3068691161344104  3.2948416435247396 19.6448034037971588
  3.2206998678470695  0.0006030100865400 21.9120111679605607
  9.6595080138966996 -0.0005673605994000 21.9120368570177995
  3.2201494598136198  0.0001232246598000 17.7693811197216007
  9.6600417374995597 -0.0001043785353600 17.7693330778483194
  3.2200750986001698 -0.0000125860481400 13.7873623935883192
  9.6600983226879400  0.0001042467442800 13.7883475856146802
  7.5270218607459700  3.2947507076795399 13.7175765682873188
 13.9670416044861092  3.2948146263533400 13.7166260731694400
 -0.0000904371546500 -0.0000881023369800 15.5929998532352396
  6.4401768059528601  0.0001082004766800 15.5930819247687609
 -0.0006068217069400 -0.0005525999984400 11.4503914905640798
  6.4406302610631805  0.0005441653693200 11.4503240984918406
 10.7470322825034899  3.2946500192944197 15.8379980602537209
  4.3069220716564196  3.2949192025753198 15.8382806398833598
 10.7453436464933212  3.2935724295287998 12.2555402579490007
  4.3088545828287907  3.2962398150924597 12.2559162523322396
  7.5244530392944800  3.2928478421709597 21.1064627188798788
 13.9687951658993406  3.2960199216754797 21.1067589770984370
  7.5270323939451096  3.2946288009305400 17.5243839135754804
 13.9669609038369806  3.2948809831621202 17.5244583117542376
  8.2876342499461799  2.0740353679107599 19.3960689402588002
 14.7280326769201384  2.0745084978879600 19.3957896968703594
 12.4489306108761113  2.0353428906290998 21.6129324910900813
  6.0060959268630700  2.0331303819780597 21.6126182171690395
 12.0195827393211481  2.0938533856702199 17.2829174514913184
  5.5793991078026508  2.0938603705974601 17.2829451422932792
  9.0451493583338909  4.5542580269953792 21.6128147217757203
 15.4879751237456809  4.5564733691546397 21.6126459079710003
  9.4744174632848601  4.4956859196243597 17.2829855108118018
 15.9146122877597502  4.4957489816561402 17.2828870916963986
 13.2063786502507590  4.5155535567254397 19.3962107305097966
  6.7660341080260409  4.5150079416542397 19.3956782664142793
 11.5078040573266591  2.0739383696758797 13.9662796711583983
  5.0678664083456297  2.0745654975300600 13.9667744357283592
  8.7994038922848503  2.0937878855034602 16.0795035563599207
 15.2396123191005302  2.0939431353956999 16.0794294918052785
  9.2260964666834901  2.0331742684076999 11.7496409829839994
  2.7884302153648304  2.0350302821873401 11.7495215455490403
 12.6945685205325596  4.4957276973967195 16.0794982183739990
  6.2544684862086601  4.4956940906713196 16.0794471738836400
 12.2655291072658699  4.5545151513924598 11.7494181220718410
  5.8278451220971110  4.5564751483342203 11.7497517461918406
  9.9859362185985709  4.5152338974608996 13.9666586681587184
 16.4264244009927793  4.5154619619248395 13.9664097845651991
