Rb Si  O 
 1.0000000000000000
    10.9264039999999998    0.0000000000000000    0.0000000000000000
    -4.1922509999999997   10.1760389999999994    0.0000000000000000
     0.0000000000000000    0.0000000000000000   33.9390950000000018
 Rb  Si  O  
  32   8  30
Cartesian
  4.3978092149815202  0.4728801252884399 10.4644835852187512
  0.8370997366212500  8.5975836263585101 14.5625719493982011
  4.9239964837620995  9.5895094113062989 15.9123199152106505
 -1.3278630994713498  6.4185033236024696 12.5712355984053001
 -0.2112202935157499  5.8461170044733093 16.3482377240820504
  6.5375432223710401  8.3495893837525195 12.6639005276566508
  3.9807230674935394  6.4919996635195796 14.2588869636839011
  1.5275919879088002  4.2730148379081596 13.1863151746541014
  4.7399949455329704  5.3196527071017901 10.8075783086561010
  2.7882694219747304  3.7088081206875896 16.4197813363420515
  0.3071884890584800  1.7418826617418799 11.3434820489613006
  7.0023937574393909  4.6108360295788495 13.9547516061789505
  7.9303605092468104  3.7796431211250296 10.6596007999375502
  1.9378910206285300  0.5088158911734300 14.6364790802340003
  5.8405535238047790  1.6391488318511400 16.0509875907797515
  7.5003968785930697  0.8889273780430500 12.7740254243307501
 -0.5391961191529995  9.5895181626998394 18.0267455577766995
  1.0743191671609900  8.3495803270778097 21.2752280720474012
  9.8609986088267885  0.4729064812294500 23.4746378872753496
 -1.4824900343836498  6.4920258159398099 19.6802195756084011
 -0.7232018566484397  5.3196562687154394 23.1315278912452520
  6.3002761496772601  8.5975812858695395 19.3765033659266983
  4.1353379689404397  6.4184963021355594 21.3678363230100992
  1.5391807610387203  4.6108332820483193 19.9843495028581515
  5.2519924796192088  5.8460982805615505 17.5908280882962522
  2.4671560934898000  3.7796312151593998 23.2794918243258024
  0.3773417441070102  1.6391357047608297 17.8880992638374501
  6.9907889403266505  4.2730186030425896 20.7527788071730512
  8.2514916817273498  3.7088119875824099 17.5193228272136032
  2.0371816828809801  0.8888938988747399 21.1650593939407479
  5.7703797204788803  1.7418891744068399 22.5955983572278498
  7.4010760357645111  0.5088006271149300 19.3026111682926995
 -3.1304864171536098  7.6738933726856100 16.1501654323616002
  2.3412349985282810  7.9112711573236796 11.3372783217862505
  4.3409821767885903  2.3876539949214899 12.8361767314404496
  9.8741886264500902  2.4695017082855100 14.3470821141237490
 -3.1219878953722695  7.9112635252944292 22.6018587626915526
  2.3327109692877994  7.6738857406563596 17.7889190465189486
  4.4109818742257296  2.4694899040802700 19.5920067768391526
  9.8041738680290305  2.3876580653370900 21.1029186079504996
 -3.3442496828640698  9.1525660695067490 16.9207542812913516
 -1.8398571259394196  7.7888906524564190 15.0870830142938015
  1.5011966128008503  6.8728744550745891 12.2551119343735007
  3.7944570518567300  8.2767929517978285 11.9506246284534008
  2.6232947471537305  6.4887407870298297 16.6357279918351999
  6.3967759881267003  7.2650330492351394 15.3256069739537999
 -1.2463197264357699  3.4867565701478100 13.0144065312691506
  7.1770475668957410  6.0273434059093800 11.4777254241062003
  0.1319927909504299  3.0590222383620898 15.3719175478632000
  4.2128549800636499  3.6229911415512301 13.9507240537752999
  2.8839756924525304  2.1763422359423097 12.0167994152753508
  5.5434926643004596  2.7047685753934196 11.7056651375994996
  4.7182196818342703  0.9417259599153299 13.5841635006639994
  8.4295761334418184  2.2909990254481798 15.1648782078527997
 10.3125998606346982  0.9757044664590599 13.7209421262054008
 -1.6687268914895899  8.2767371871041089 21.9886091824451491
  2.1189491061788002  9.1525574198735988 17.0183261248978006
  0.9335707663538204  7.2650387478169796 18.6134937956923494
  3.6233557059990003  7.7888802728966402 18.8519841556483030
  1.7138524505302599  6.0273434059093800 22.4613621092928994
  6.9644129445986085  6.8728842240720303 21.6839481083586527
 -1.2503544973190499  3.6230108830668897 19.9883913096817025
  8.0865133034996610  6.4887478084967398 17.3033513961810996
  0.0802848854496601  2.7047555500634997 22.2334264684910003
  4.2168814575004490  3.4867474117127095 20.9246759112657017
  2.9663736398598801  2.2909845754728000 18.7742117012829510
  5.5951951585825697  3.0590033109295502 18.5671747370092000
  4.8493836291854500  0.9756941886596701 20.2181460859756044
  8.3471729218244590  2.1763455940351801 21.9223027119346021
 10.1814031113076400  0.9417386799640799 20.3549087601423544
