Ce Bi  O 
 1.0000000000000000
     8.8957370000000004    0.0000000000000000   -2.0165790000000001
    -0.6672290000000000    8.8706790000000009   -2.0165790000000001
     0.0000000000000000    0.0000000000000000   20.1657900000000012
 Ce  Bi  O  
  12   6  12
Cartesian
  0.8242181488612702  7.5974323879170909  8.3377560231975885
  7.7487734786017404  5.1933918897968407  8.9378036038506004
  5.3860064301105908  2.7880116530272203 11.1368416433153108
  4.8491564609296205  8.2390169316630608  8.9507930344948790
  2.3440970888492005  5.5898531381493903 11.3872264038475812
  7.5023663345264806  1.6477641069660003  8.3823321995057434
 -0.4365404682627800  5.8274137361613603  5.1283683466264804
  6.1076999720592102  3.5201533217058008  5.5293641733159298
  3.7289472188901200  1.1412350300475000  8.1498399596325601
  2.9551347919496300  6.3346373872455608  5.5799511061520111
  0.9533555793865300  3.8283542413324207  7.8627592287162305
  5.9764952755130203  0.0072798114281400  5.0915832031190398
  2.1028575031039103  2.2607921608751700 10.8451937844455699
  8.0565486645810402  8.5313899874567714  8.9126869914108600
  4.3581694952975605  4.8094550644176000  8.6477030257159804
  0.4072938486627900  0.3633088597258500  7.5335056400123701
  6.3534398188535013  6.9210817016207402  5.6446192253371796
  2.8789422984150299  2.9974427069826599  5.4095011777823103
  5.4709513434277204  1.1986598140879501  9.5802920053086620
  0.8161640305630201  5.6350315062963912  9.5540321539022397
  7.4095714873797807  3.2370589074393004  9.9424605594347408
  1.0887037858769002  5.9342331220775106  6.7682420407894215
  7.7685225894680014  3.6137795241588306  7.2114882425631599
  3.0345834504893006  8.0275084533926115  7.2295673572771193
  8.0174868874217999  4.0226356835712904  4.2821047178815803
  5.7855262892121599  1.4820977897521201  6.6334490606398209
  0.6482131916672900  5.3893439470117803 12.4253520976131302
  1.3917031930464701  6.2530549056708304  4.1393299365578704
  5.3242827407030804  0.9806209193512802 12.2244379724456991
  6.0650205662952308  1.7045261625783601  4.0778665445537108
