Rb  Y  O 
 1.0000000000000000
    14.7135289999999994    0.0000000000000000   -0.4356150000000000
    10.6122680000000003    6.5972479999999996    0.0000000000000000
     0.0000000000000000    0.0000000000000000   36.1162380000000027
 Rb  Y   O  
  24   8  24
Cartesian
 14.4801151905534500  0.2788206137561600 20.6783371119907535
  7.2101252440151100  0.3326712443084800 20.8963579234959944
 10.7198854092400016  1.2621454420646399 22.0460150612263845
  3.5554969617910199  1.1327910234367999 22.0015083760736410
 15.3797897371352708  3.9103161505139199 21.7834453288036514
  7.9916429498633601  4.1395971054233600 22.2639438025068621
 15.3889908218979592  5.1404418494105597 18.3991313566865387
  8.2697985847370319  4.7356514691404801 18.5272208199717312
 10.0629858471030804  1.2769769132108799 18.3095891969404185
  2.4485955079142907  1.6692008554905600 18.6169990998887727
 12.1468744244400799  4.9385433001049597 23.3395136035024215
 18.7767517172948999  4.4869313931366390 23.1218556778655397
 13.3603838616988693  1.4499458703116799 13.3865465269303492
  6.6551912467175098  1.8550943492031997 13.6044107167762505
 10.0737496381562899  2.4239154051212797 14.8965301060133708
 17.4742556033466698  2.1929857979366401 14.4129583038546922
 14.7810392906607397  5.0921980879884794 14.6307556465749613
 21.9501830631417114  5.2334522267238395 14.6786804933245492
 10.9834336075384300  6.0433554607462394 16.0409254871162723
 18.3017935378425101  6.0197036009689597 15.8233120691867111
  3.8884269544603098  0.8193470625894400 11.5811671331924710
 21.5565920845075070  5.5556075236927995 25.1065633218263713
  9.9583382135917304  2.9185965220428796 25.3243761702919521
 15.5135688694890277  3.4729392575001592 11.3634349387445699
 14.1026509780290201  1.0213474734041599 24.3406200494509797
  6.7106006260424698  0.9993752729676799 24.5584146240256516
 12.0944060125294097  4.0430547594483199 19.5658588899695722
 19.6035205522857297  4.1379962831961601 19.3482707930100339
 13.3952923981213505  2.3011678664755202 17.1427051907783721
  5.8768517806997895  2.2006533174796798 17.3605748582273129
 11.3538155585875788  5.3523606288409598 12.3450222439973416
 18.7573684995212986  5.3814223639231997 12.1273027662324004
 13.5788025645219594  2.4393346250918397 19.3273713764680224
  5.6712654591756300  2.0972188924915196 19.5452019097536329
 16.3450960905198102  6.3711227726988797 23.2195777021612564
  9.4892143113386602  5.6036579197759995 24.5558102333593204
  8.7443590599156291  0.5672238621772799 24.3381226586844335
 15.6344235725947591  1.3558903569702401 23.0019376591353009
 12.9939501205512116  5.8010983787455999 20.3474329121792117
 20.7991050481059219  5.6326883839027202 20.2936988347972225
 10.2249380387231490  3.6325898222835198 20.5113493095629735
 17.6287715381703514  4.1092835425331202 20.1296562971922306
 12.4216189938104993  2.2460247030950398 24.1816902044085005
  6.3562382650861498  3.0489032534195197 24.3994965247106137
 13.0513284692023301  4.1472833611507198 12.4788767708862309
 19.0869694088118820  3.3258186479257597 12.2610878116965019
 12.4831387710840502  0.5489205892710399 16.3677751130324722
  4.6933622187483399  0.7208285769484800 16.3731392957300415
 15.2462343179414894  2.7080231193971200 16.1557694703609300
  7.8521003727304794  2.2434683354675196 16.5861755494077592
  9.1311087607847803 -0.0272604884608000 13.4920954894850418
  1.2350252600748601  0.7742119903974399 12.5756685220596012
 16.7283370706271413  5.8323832544588798 12.3578975422253414
  9.8515372982431604  4.9939958084441596 13.7097725821366812
 11.9265147424851214  3.9063936907430397 17.3859474729019787
 19.8005967773711902  4.2279332005836796 17.1684370063713310
