Nb  O 
 1.0000000000000000
    14.6887790000000003    0.0000000000000000    1.9285159999999999
     0.0000000000000000   14.6887790000000003    1.9285159999999999
     0.0000000000000000    0.0000000000000000   34.7132879999999986
 Nb  O  
  32  84
Cartesian
  5.8743680785548493  5.9280517467173102 17.6006057095867980
  5.8903587240376201  2.1063831002865703 17.6763446848728378
  2.0945734688583602  5.8372601099427301 17.7019681441287595
  5.9844460821564303 12.9473436081532896 19.3460799304943194
 12.9630606016832903  5.9888256885030700 19.2938061929234408
  2.1182410577976900  2.0206068002137498 17.8616443512129592
  5.9556892719569694  8.9713384918916503 19.1232880810239969
  2.1878119624387602 12.8725703786537906 19.3343792575042777
 12.9699879767474808  1.9651632694393002 19.1736662416481600
  9.1700428593554193  5.7538375398168702 19.1277427022769189
 13.0383598363587794 12.9005436893813901 20.1470835548237197
  9.1955699008283602  1.9125589327577601 18.9248433217801555
  2.1292329648989701  9.0407901236472394 18.9923289042816421
  9.1903766830129108 12.7958422195571799 20.5610630806892374
 12.9777445333862200  9.0531507311757409 20.5805398001835194
  9.1058617083928208  8.9405800417778600 20.7219191538622383
  5.5696738884607804  5.7344648029693497 21.3965100972044375
  1.7069349752826699  5.6499909569304601 21.5775112363766794
  5.4990552332136398  1.8711458299085300 21.5569435746663594
  5.5498556409461894 12.7610989974762710 23.1727215268192808
 12.5664416824025800  5.6492668001257602 23.1499937729076812
  1.6535070387626001  1.7884112821910301 22.0933000146561973
 12.4611626497880899  1.7611868054168500 22.9664792374029574
  8.7484741676164699  5.7529979292092301 22.9732678065745581
  5.5729607965376102  8.9157892019083995 22.9783096609494812
  1.6579362931822601 12.6725064178057796 23.2163551270069597
 12.5654926403913905 12.6137001848548600 24.2927488690500404
  8.7072937350265995  1.7603380877662300 22.7665131683125210
  1.7667751513874002  8.7302932782970100 22.8388294326869179
  8.8065491931487703 12.5898041854020803 24.4595754927629194
 12.6083757962429406  8.8253073514829303 24.4484925041625232
  8.8191216128704504  8.7411263996973005 24.5233244405182802
  1.6188130240913399 12.6938597896136596 17.2405126235120001
  7.9327999535715001  5.9975381908791299 17.7109294951369165
 13.1851517086319099  2.8466141296218499 17.2564218391133579
  5.9696587414493401  7.9451026873107402 17.4935453780970391
 13.3187712714490001 13.1793073372433902 18.4581945775676388
  2.1568183449731801  7.9091579231076308 17.5001108758229194
  7.9814083548138806  2.1180119128452901 17.5294439898861185
  6.0231749575312001  4.0183419964221798 17.1506477120846412
  4.0105075892547406  5.9513926572116800 17.0931651299383986
  8.0009066807218510 12.8001779064546106 19.0839548015240794
 13.0508861333143997  7.9467855807207712 18.9984128322771610
  2.1236942670014400  3.9568651965612700 17.3678272135769163
  4.0341901607486497  2.0529661803507500 17.2682841024590381
  6.0554810174004299  0.1620671742186000 17.1378230613994802
  0.2295262731028400  5.9302142287616908 17.1087180907790781
 12.8305027438123194  4.0742330942927598 18.9144609630425613
  4.1412453605198198 12.7807475895934104 18.8906104849712406
  0.1688937842588500  2.0321565871414502 17.3715825549282386
  2.1526083940239902  0.0803257348492900 17.3834944197054391
 10.9719484290381715  6.1029110847914305 18.7063234823827180
  6.1052176637578004 10.7937390211375206 18.9022561952552799
  7.9938155257718098  8.4968843202410991 19.2651794749858780
  5.7341813095346499  5.9880652504142402 19.4420939344728438
  4.0587086706554505  8.8108919306601194 19.3718087445793188
  9.0923505288052500  3.9461360717163001 19.3896700040758780
  0.2050869357148500 12.7390725858146112 18.9385419566313580
 12.8599624120869294  0.1270414869175200 18.8334764628068392
  2.1986021926043700 10.8270605162990208 18.6162866823242794
 10.9583498512155515  2.0386571062879000 18.4471697530097991
  0.1092621888159200  8.8782583433488700 19.0976021571348369
  9.0143979130912015 14.6785625135421309 20.9729229746191592
 12.8839170197679209 10.8090704342187713 20.1310515313234788
 10.9150495340403992 12.7624369983553798 20.0043318113039206
  2.1394619368189898  5.8934586439577803 19.5476278069782801
  5.8321044954015200  2.1113902112720901 19.5041423168194008
 10.8751844816099794  8.6882604558617693 20.3776686531609990
  8.8982629914689699 10.7705665909382802 20.7823111531015599
 12.7782551975726903  6.0749608354468601 21.1066355129398815
  6.0226382295465406 12.8198195948456188 21.1690326674050375
  2.1434381892942902  2.0332857135831799 19.6389030421564392
  8.6950475530865106  6.4041927777482206 20.9098001002980389
  2.1709991859953597 12.4759496967196011 21.1572511317391196
 12.5096827714686807  2.1757517404408100 21.0644357643982012
  6.0367111080430700  8.3277321603596395 21.1646396429531585
 12.4121090316542215 12.5792482412615207 22.5203325660715983
  1.9324357885005601  8.6023920571446197 21.0194418854499183
  8.7703169695406302  1.8764191015695300 20.9460335796053592
  3.8068517812778606  6.0134155858758103 21.7490810451915593
  5.7711174194324695  3.9096244675315801 21.3935753201259580
  8.8959076457563189 12.6091550359688895 22.6382521590205954
 12.5421534925505007  8.7949021665040892 22.5996936029682018
  3.7686273185739503  1.8909185422082200 22.1165026849179611
  1.8007948042147699  3.8851387136019504 22.0044274597069602
  5.7339890334175401  0.0177706317219900 21.1393242834134014
 14.5673327627791611  5.8289979655308102 23.0508883192108378
  3.7925618026277101 12.6648443100160115 23.5795637692500826
 12.4869480668836399  3.8662874284089304 23.5352775399628378
  1.7658289002442200 14.5338980171315715 23.5563131367953957
 14.4554420169611895  1.9099838429112699 23.3121230330587181
 10.6478982473046404  5.8984428404480598 22.7323893697982378
  5.6815412791201405 10.7279446015773487 22.7485324179645971
  8.9482016085375893  8.6306801484061904 22.6799018755139201
  6.7093831547969103  6.2539111453602700 22.8096692872237554
  3.7683893603541501  8.5714983233762396 23.3726207921154803
  8.5871968090447002  3.9311637992815998 23.1642517159691970
 14.4759665009701006 12.7049652409766107 24.6024538819284402
 12.4676433390828887 14.5884992933181596 24.8355770616029972
  1.8282224268025200 10.5695521192011803 23.2539589133580797
 10.5353989453726999  1.9270494132412601 23.3561981476994376
 14.4537284240030512  8.7257127294536492 24.9944292523707219
  8.6582013385161698 14.5569144524978302 24.9640908029167186
 12.5387752202682901 10.7071939103718403 24.8306578801308397
 10.6341297203089891 12.6249196211428494 24.9715806962168791
  1.6350516161636299  6.7413457910131207 23.1507695570390020
  6.7161147284370308  1.8928812568582001 23.0237331168367589
 10.6728682902779006  8.7170406212198408 25.0584259758617591
  8.6741106081632804 10.6487136214269302 24.9248840919218786
 12.5001106817455394  6.7651185516100902 24.6549037701507601
  6.7351510922454505 12.5874006604943105 24.6206831987035990
  1.3873977740091001  1.6461119729750500 23.8003681865565966
  1.3767158001447202 12.0492349381457906 24.9797010021122823
  8.7289164990413397  6.7089837668958996 24.6339909619319180
 13.0251406696977305  2.0278991914360902 24.9703561271272001
  6.7674990151348302  8.6607100350815802 24.4349837124263587
