Ba Se  O 
 1.0000000000000000
    12.3668700000000005    0.0000000000000000   -1.7117410000000000
     3.1926619999999999    8.2929720000000007    3.7778610000000001
     0.0000000000000000    0.0000000000000000   43.2080509999999975
 Ba  Se  O  
  14  14  46
Cartesian
  8.7804387294347013  2.9449280677836005 17.1251740739530405
 13.7698356090874405  7.0866316766906410 18.9432084994364054
  1.9853748932341799  1.0630755831016800 18.4541750958221975
  6.5133665537858398  5.4101563851128409 20.5071711973875388
 10.5283552075652800  7.0876821474538811 22.1327860671737611
 11.9941533376163409  3.1286416130618400 20.5202414789534373
  3.4986367099841402  5.0306956946060408 24.0086650661981551
  5.0754668976470008  1.1927259170364002 22.2549610490864467
  8.9539846984574805  3.0903394437934804 24.0323196457635397
 13.6111505231607808  7.4239111602760799 26.2031459326350067
  2.0681518258381804  0.8042253894712801 25.7574785321981281
  6.5938907925991801  5.1582372086908803 27.8101552818824267
 10.3623890628026398  7.4272804289402412 29.3886291676482188
 12.1698427204460611  3.2764547996223601 27.4328890995531296
 12.2364629372261398  4.3062938095424403 16.4753246341425701
 10.2798993289297602  6.2822304762129599 18.7337997208553197
  5.5042532090183203  2.1350622134065205 18.0818863368169396
  3.1274156287409198  4.0302260791645201 20.5677501740328061
 10.8900621378879396  0.1170952719050400 18.5280316427766465
  8.4548858955309001  1.9915945441740002 20.6290028249167214
  7.0836351403006805  6.3885369232648799 24.0269639925009386
  4.6874476405862397  8.1232332735578403 26.0150750174832908
 12.4901877573088811  4.2291850924486809 23.9266903370109105
 10.0583272210595798  6.1016137754686799 26.0239380331424606
  5.4500334978041796  2.1932592225028804 25.6972427392177387
  3.0766308473024400  4.0860457419776406 28.1832469951613298
 10.6619305816057608 -0.0629803124162400 25.8223445041270168
  8.7066528275458008  1.9049765248770001 28.0902392463812376
 11.1234877857813608  7.6700543646297614 18.2104477128662587
 13.5503773081288408  3.5034681908150405 15.7915853976531277
  0.6824880746626001  0.1535941344120000 16.2903610227998499
  6.2787589699603599  3.5957068548147602 18.4418256869666202
  5.1086167265212392  7.9185726761642403 19.9943151658177918
  4.1206761543826200  2.3408838268801202 17.2082260086419581
  3.5833251533474599  5.4942434722851603 19.8451712531891182
  6.7117451694135397  1.2829747653344401 17.2674806331788062
  8.9762299840992608  6.6973969723143609 19.7859588668467090
 11.4819684194348213  3.1651289483377201 17.5484847535970978
 11.4721364639473808  5.7063197281708806 19.9005641158280007
  9.5884514460421393  0.4274427484124401 17.4015281365590084
  9.1789683892234208  3.2164736405299199 19.6361136471254909
 15.2386615122138807  7.6843598242594799 21.2507436203567579
  1.8838615962245200  4.5911473632463204 21.6659192792853403
  5.1131656705093995  1.2288575667432000 19.4560319521873772
  4.4408318050845601  3.7706811003399605 21.6774852520205670
  5.7461735004302206  6.6223367022343202 22.9524953718649698
  1.9799301619887799  1.1955168338332800 21.2963435325607477
  8.2654558326013809  5.7265127003422807 22.9562236080269564
  7.3592793689065399  2.8629256679126400 21.6271834329913482
 13.4926484124856607  7.0769513734047607 23.2106061565436583
  9.7678038270108019  1.6919702951112001 21.7135452449287101
 11.1786201630450215  4.5278719868863204 22.8404682304889093
 10.6505004040365794  7.4324670194884810 25.1179094810599963
 13.5855428039520199  3.3561496800343207 22.9301535859594594
  0.3148202976809800  0.4932667209274800 23.3090498065828520
  6.5984829819536799  5.0226437993020809 24.9669692897308302
  6.0262694356815398  7.8904914290264401 27.0879121689841185
  4.1382268753123599  2.4514508712267604 24.5851747084760106
  3.4718575895817798  4.9894955462722805 26.8096824497410857
  6.6928591059907205  1.6312749452701203 24.5994000786021800
  8.9009126252487185  6.8292948675205203 27.0759183778844204
 11.7630854583090780  3.0078339093112803 24.9224597603889961
 11.3583910692240408  5.7922521674726406 27.1528277126230115
  9.4717005569231603  0.5153280167607600 24.6549080225466284
  9.4648026796175806  3.0489172925992802 27.0246924162678965
 15.1591022867162000  7.8161053775700005 28.5491206830925783
  1.8720685564521000  4.9413681954972004 28.9973952594619888
  4.9953789880491204  0.7292210140225200 26.4222034836708772
  4.4565920720611798  3.8775999833740804 29.0603449535742477
  6.6524584012106800  6.6016140579412808 30.0386011327863685
  2.3015105816526003  2.6237429208180001 27.8274306036465475
  7.8898090309660400  6.0770527290854410 29.9658075845950371
  7.3771253740103795  2.6955085589818801 28.7529621154664170
 13.0098208549261400  6.8408590852556408 30.1188240064877775
