 K Sb  O 
 1.0000000000000000
     8.6239439999999998    0.0000000000000000    0.9657850000000000
     4.3095080000000001    8.6098070000000000    0.5048930000000000
     0.0000000000000000    0.0000000000000000   38.9864850000000018
 K   Sb  O  
  12  12  24
Cartesian
  6.8174188147477999  4.0174147259340494 25.2231037151857542
  3.1019640550900398  0.5752543534269500 22.3971043179894522
  3.2747758380173204  5.8194314889891707 20.4850114394374820
  4.8652725388470000  6.5533484850870298 23.8804146870823679
  9.4251367852826800  3.2087806193172099 22.2377242318772943
  4.4292743557834804  1.1582509036025099 25.6649808447589933
  7.8153625125228796  2.5281856216375402 18.6960878965702086
  8.0673302425864399  7.7979797742610701 16.5838070488669800
  4.2030698162403999  4.5808769154976599 14.3030301837063405
  5.5210059695170806  5.1631429235492696 17.5700437155390823
  1.8112961036707600  1.7220009190141301 14.7421542460218191
  9.6524422649947610  8.5306006500131506 19.9877493690803512
  9.4254440949398806  6.6318830118336694 24.2311826066340288
  5.5920849043365601  3.2149704678637199 21.7612263001384818
  0.8021741236054001  1.1279500654351300 25.2627714640507719
  2.2005592865603201  4.2636750947882200 24.8502074028128277
  7.0381011069518795  0.5322290814942701 22.9379298663279805
  7.2638742043352806  5.8819012351487201 20.8563667407384798
 10.2089499933965584  5.2064759960822000 17.9849826338304482
  6.4231364130430002  1.4764840069944101 15.1208315375399405
  5.6664255384262399  8.4628479262783998 19.6129894331856001
  3.0255647790793603  2.5242309650863004 18.2104937047327518
 12.1321180479276407  7.7195211860121695 17.2138028018864304
  7.8194702299047600  4.6116470742446101 14.7061353135560413
  4.1302646752807997  4.1595832169427798 25.0940411963172707
  1.4740701146802400  2.5644912835989997 23.9460005525298527
 10.2059868613354396  7.8038453774759597 22.4876960168890392
  5.7845329089800002  1.9687937183331801 23.5328070732911705
  5.8797765755117197  7.1991404904209499 21.4442951853845010
  9.1503297393191598  5.4455750718660507 25.9638988850427523
  2.0942302775858801 -0.1978152234149900 24.7635819039220912
 10.9129454966364001  5.2353529443679196 23.9968937639962334
  6.8939621337871202  1.8284895088341602 21.1270090639512915
  6.7967692556912400  4.5783596662250696 22.5971082430671828
  2.4762736808938799  1.2651593937099299 19.9690895087544220
 10.5391889943320400  8.0001132463769107 25.1310693424040927
  6.1407424897204397  4.4710212023560700 19.9987489921298831
  1.8257508746134001  1.1587733466912700 17.3700001714076819
 11.0247449027925999  6.3517557088507903 16.3062315852800594
  6.3334876476600401  0.5044324917909100 16.9397262524137382
  6.5327027741704402  5.9468295977951895 15.2007941284795098
 10.3413869273643595  3.9085371729657301 19.8024279989041716
  7.0522652874844791  7.1493848462582994 19.0236791067503503
  2.8447106213027600  3.7721034161054900 16.4343041790144611
  8.1018303438965198  0.3023699644847500 14.9766264917192000
  7.1339173720138804  3.1821492808932299 16.0219825591884231
  4.4953397921188403  1.5735392617748900 14.8693269954519103
 11.3458480516315205  6.5444840860940401 18.9495452902177135
