Ce Zr  O 
 1.0000000000000000
    10.8607560000000003    0.0000000000000000    0.0000000000000000
     0.0000000000000000   10.8607560000000003   -5.4261090000000003
     0.0000000000000000    0.0000000000000000   37.9827629999999985
 Ce  Zr  O  
  24   4  48
Cartesian
  8.2676030159335205 10.6681964252334005 10.8929141430665375
  2.5938426420724801 10.6678417129424403 10.8878786053923573
 10.8604621079426398  5.1475672805943598 13.5872511172877708
  0.0008980759136400  2.8232908832006398 16.2302342021890169
  8.1608265793951205  8.2794122417550007 13.4718774437145594
  2.6994487235443203  8.2800223990270805 13.4699853052451708
  5.4298056381587996  2.8848822304766402 16.2161493254911768
  2.7059208652598401  5.3450410216282807 15.9952548155891385
  8.1545485193893192  5.3438765313699603 15.9954685500226486
  5.4296488088421597 10.7668269689491201 13.2096382621983004
  5.4305822908203609  8.1647773966052402 16.0681915418064314
  2.7150370580235603  2.7151708625374802 18.7658536356228574
  8.1454505726956796  2.7163846606280400 18.7664470891641884
 -0.0004057578441600  8.1259318392276008 16.0353864262753198
  8.1363855340927209  0.0858022531587600 21.5329444761880815
  2.7242670715101602  0.0856289154930000 21.5339814056179826
  0.0001918009509600  5.5235897867246395 18.8957350425682762
 -0.0000367093552800  2.5473204851389202 21.3162986638941270
  8.1310296608788803  8.0111246338801205 18.6328786411532654
  2.7299816754946802  8.0117816010105596 18.6329526532800287
  5.4303264114090002  2.6066289015037198 21.3007612720780806
  2.8355994865829999  5.6250659571199195 21.2162103393739194
  8.0255710684735213  5.6251393758304795 21.2163757271762421
  5.4313204964056796  0.2794880883225600 23.9395646252166294
  5.4300175315083603  5.2557879804656400 13.8514135288779876
  0.0008981845212000 10.7322326372925598 13.3503601124871896
  5.4300806325007196  5.5592799686615999 18.7535051138050193
 -0.0004385573272800  0.1750649603942400 23.6776822646282099
  4.1192203999989605  3.9834651856938001 14.6770832107996192
  6.7410402409198795  3.9829131334663201 14.6772769771520064
  6.8992575621766798  9.3888128357708389 11.9158322743067373
  3.9605324821846799  9.3904243547461199 11.9124500177837689
  1.3201177237010402  3.9111852254004003 14.7019811289904805
  9.5409213076003194  3.9106434908911205 14.7022149400272895
  9.5701855060347594  9.4638979121239188 12.0943712827489485
  1.2909435609338400  9.4665447869686794 12.0926561439551392
  4.1039069512540802  6.6811061364019197 14.4729419209572576
  6.7567279513165195  6.6813823254270002 14.4736087897533601
  6.8413465992863998  1.2881036904549601 17.1229537704127459
  4.0183117041046801  1.2880776246405601 17.1214524203135383
  9.5192632224153613  6.6732180779266796 14.4663122467199692
  1.3403984478100801  6.6727069707493198 14.4658356715664986
  1.3089235424918400  1.2276573926840402 17.3404613573380821
  9.5548348048968013  1.2261371040591600 17.3436442043553001
  9.5618854990844397  9.5494376608101614 14.7210989388301776
  1.2990529616163600  9.5485062423756002 14.7209918816996073
  1.3566258291723601  4.0673430214969200 17.5092482371189497
  9.5053507025869202  4.0677429145328396 17.5086815342949897
  6.8092043005119605  9.4903386398210401 14.7537185356945777
  4.0515148815251996  9.4898166718876809 14.7534859184017506
  4.1251449423969602  4.1375976680114404 17.5300302888500390
  6.7351483893974402  4.1380326412892403 17.5292303176001703
  9.5564146104645591  1.2934323031712400 20.0027536852045458
  1.3042264827369601  1.2920856780348000 20.0014350321953671
  1.3769533631397601  6.8011101048878402 17.3498390302173320
  9.4839395909934012  6.8003182471678807 17.3500698026330973
  4.0738338437127597  1.3641220315711202 20.0223467679315590
  6.7861689628586408  1.3646450855800800 20.0226380957237708
  6.7294353059187610  6.7411379877238797 17.3831443787371498
  4.1309570759703602  6.7414102668767999 17.3826049692414557
  4.1218902996464406  4.2031249532618400 20.1912464565185417
  6.7391098501484406  4.2028165077914403 20.1909998398644888
  6.7727280170557203  9.6168321272320796 17.6353156320482718
  4.0883320841122801  9.6176025892627202 17.6349299442205485
  1.4104511928705601  4.1435587025496003 20.4099916846456786
  9.4496222086148407  4.1435905245646802 20.4102131784150629
  9.5346992890954816  9.6083295671823610 17.6292839150227749
  1.3261581503655600  9.6088414346126410 17.6300981569393187
  4.1383587897919201  6.8251830791694008 20.0097960692923778
  6.7225877078683203  6.8250345040273199 20.0100875598678591
  6.7514624395926006  1.5193908747890401 22.8284236047897906
  4.1095814790489600  1.5194125963010401 22.8284484563690064
  9.3931319412169199  6.9017822535164397 20.1928027731019171
  1.4675678000669998  6.9027058522066795 20.1930611101514081
  1.3106344373845200  1.4469546282168002 22.8529988865395097
  9.5498700275065200  1.4469912289645201 22.8530770767701981
