Na Cd  O 
 1.0000000000000000
    10.7990159999999999    0.0000000000000000    0.0000000000000000
     0.0000000000000000   10.8591920000000002    0.0114500000000000
     0.0000000000000000    0.0000000000000000   32.7248310000000018
 Na  Cd  O  
  32  16  32
Cartesian
  6.4436591335615203  1.5826443783650401 12.5756621190871201
  4.8708391479955200  2.0446466387585600 21.2530848553370895
  9.5839511079998392  6.3780923424238400 19.8449486387032685
  9.2437461432765602  1.0905768160407199 12.9691453364854699
  9.2822221733632801  4.6116535332527198 17.4425966953542115
  9.0995062783284002  9.9411713283726399 15.0869445377728617
  1.0441887141371999  3.8464206071461602 20.1548249261110897
 10.2705647481679190  3.3863027423404004 11.4771394328968306
  8.9289886277966399  3.7901620653760002 14.4048010703960188
  7.7721250325284794  3.6133030747245600 19.9007987156177109
  8.9363173800050397  9.0674242340808000 17.8433340651098149
  7.6714337114625604  8.7969003687525600 13.0894421627314816
  9.5452589896029600  1.3844797616015201 20.7435003050401612
  6.7081194760903200  1.4859994156276801 15.4789553278551892
  2.3720102358194399  1.8153322125592000 12.8315724995212896
  3.5293584909256799  1.6397558010748798 18.3252287264511935
  0.8613532739952000  6.6964988375487993 17.3083500954284517
  9.5491857278008805  6.9234345577405598 14.8577354820034611
  3.8819905313011200  0.8166678147903199 15.2871208594678105
  3.7008423294189599  6.3477483936263202 17.6539198317620496
  4.1828933412136804  9.9121053978816001 12.8971534224973201
  3.8452828400843999  4.3411435676902403 19.7614230481756401
  6.2603989681202394  9.5919170179413609 15.4335275580908409
  4.1498701662660000  9.3652817715922403 17.8844412660443588
  4.3345280483481599  9.4475480782024004 20.7523515559257383
  1.1517600882967201  9.2189216904081608 15.2125175305586708
  4.1470574545586398  4.0453514484972004 11.9868533762629514
  1.3114428700953600  3.9448580967069602 17.2498603867854925
  3.5354210585080796  7.2223453282840797 14.8990067631318901
  2.2710638419956002  7.4903170663084806 19.6534045184049617
  6.5510038363752008  7.0689162388837605 17.5297849363946199
  9.7353492086937603  6.8426693172405599 11.9887049676489017
  9.3704063980684804  1.5750419666377600 17.7428204878926401
  0.9684840483019200  1.4214769201536002 15.2631553915308906
  1.7764102705387201  0.8195434374238399 21.0319231405738414
  6.3746681079832799  0.7657847902440000 18.7827568901383231
  0.9764275884912000  4.6628882870279202 13.9478017364575901
  7.1759854404182395  4.6102365172886399 11.6984962635955796
  6.3683492797511994  4.0083517923309602 17.4674787389403932
  3.9705673002379203  3.8541275928924001 14.9875027161657606
  4.9796091049408799  7.0456477052257602 12.0617173393807615
  6.6233405051003995  6.9231111710027999 20.2929048018160820
  6.6338957873092799  6.5239169568503996 14.7684276966793817
  2.0799309779099997  6.5442773988908005 11.6580992765565199
  7.4786676041971196  9.7418807219906398 21.0828767180373937
  1.2333024862012800  9.7652540468514388 17.9740175471458343
  1.2226856496012000  9.3651957667916008 12.4491186896059709
 10.3786131148641587  9.2426631418777596 20.6793391374072399
  8.2081664046945590  2.8492507599722403 12.0048373460747406
 -0.0249103061875200  8.0887248951716000 18.9693986395168395
  2.6491051030977597 10.2448895718064801 19.5268043651896797
  7.4414186662984800  0.0420483117108800 13.8790663316779703
  5.8862680307116806  0.1559344135866400 21.0062216561823440
  5.4368016458248798  5.4576976342414403 10.8235741981026496
  2.8084628345147999  2.5806877389434399 20.7249100572359417
  9.9144381462148807  3.0955531975444801 19.2765495883815881
  8.0571676516123212  2.9376571795149600 16.4766065858956807
  5.6608447271508000  2.9132237803311205 19.2321025683968614
  0.2608705336300800  2.5167923618073602 13.4994529636940701
  0.0372614647572000 -0.0283866880314400 21.9071955217295908
  0.4872234164882400  5.2739328490295199 11.7232115136387414
  7.6376143250652007  5.5867199294783205 18.8686445942713306
  8.4754442104977610  0.0012511961022400 19.2226007552449296
  2.6584986271653599  2.4919409923234399 16.2541768539697706
  2.4774223467297598  8.2381955919040806 16.7433354039196516
  4.5162836948803200  2.3323171682548001 13.4555043711036415
  8.0493835048992004  6.0435209626796000 13.2149178397718625
  2.0422269694771198  5.3876183816290402 18.8501061370068506
 10.7408177269924803  5.2196365632537596 15.7681217252241908
 10.6257107994681590 -0.0062706404204000 16.5827785546481188
  7.8764211731253599  8.0516102401620806 15.9986183278143201
  5.3740565551207204  8.1988978049348802 13.7728460047948911
  2.9981694725572798  8.4275737106446407 11.5134018714851010
 10.2021213406910398  8.7206717728944003 13.3176426811678503
  4.8025671209025598  7.5691780388993601 19.4251985943553400
  5.2267004181254402  5.4376647054317599 16.1484367830976723
  5.3431530110335199  0.2106542078504000 16.9631287737640122
  2.2377982291387197 -0.1571277301955200 13.8626048408900608
  3.0736661493443997  5.4270965397773603 13.5083728064143713
  8.3964759740371200  7.8609929790224005 21.2299181243768587
