Ba Pd  O 
 1.0000000000000000
     8.5380210000000005    0.0000000000000000   -2.3157779999999999
     2.8460070000000002   13.4745299999999997    3.0302159999999998
     0.0000000000000000    0.0000000000000000   34.2192730000000012
 Ba  Pd  O  
  24  12  34
Cartesian
  8.5457539994599809  4.7672959902461995 14.4393578846951609
  3.1977560191770902  4.7358588337937997 14.1221120689881605
  5.6460729581240399  5.0083516938230996 11.2134737007500007
  8.9662943661153296  2.0949658915347000 11.1930619848341895
  2.8455695402640302  1.8994024919079000 16.8010850342765323
  5.7618448799950803  1.8534838538285998 14.2427962437092113
  8.5091173513489800 11.3504603363729988 17.3631429066388812
  2.9464280154741598 11.5460828891864988 16.5010861886725486
  5.5925027960436005 11.8199102666669997 14.0531039835522584
  8.4444643541893498  8.6673650314086004 14.2725253363748799
  3.0853530865523702  8.6432177304315001 13.7749446076077806
  5.7144648400597804  8.7145506795437999 16.9226608823803915
  8.1096259101652812  4.6420677507851993 20.2948245781284875
  2.7759587419902600  4.8836458618901997 19.5612341371140097
  5.6924820827712903  4.8373729784171999 17.0026737538192201
  8.5304405749752910  1.9698555542112000 17.0497191004174091
  2.8938119487804004  1.7302383914571002 22.5905267517367214
  5.3406760865340592  2.0009070696150002 19.6810863888543892
  8.2986265882487711 11.5693333254468005 23.0569139538036723
  2.9399417947607400 11.5441176289859992 22.5626576153961125
  5.6688994995678907 11.4968466870758999 19.9121909749895067
  8.4365463642743705  8.6656547093156995 20.3330712393235018
  2.8741809324562202  8.8598283459183005 19.4721117578661875
  5.7911914527155108  8.3889509239161004 22.7823840687672394
  5.9456148248931306 -0.4502566750167000 11.6880119793312716
  0.0175005239440500  0.1153918325610000 16.5437701238163299
  2.9856868321346104  0.0235049701320000 14.0178868166624806
  8.9234283778827308  5.7404602331712002 11.4773928387407800
  2.7738045139117502  6.7652673640101000 16.6705342657497617
  5.7908153244303904  6.6488890611077993 14.0480895446088798
  5.7646125364223701 -0.0269250753366000 17.1326524967593308
 -0.3843803393366400  0.9976279258664998 22.3285069324584740
  2.7461935216401301  0.0890662390641000 19.7559458797313603
  8.5204782128519998  6.6212726076369002 17.2618352101780985
  2.5919555668185601  7.1889517268855991 22.1195705819244388
  5.5517889867644703  6.7131265922127001 19.7858674309768006
  8.6395906354392888  2.1849191589086998 14.3131129504207522
  3.0198171157209903  2.1370150488338999 14.1404466407716001
  7.9087797525068106  4.4779634710947001 10.3977849566032781
  2.8176243983105400  4.6510559360216996 16.7518546665498498
  5.8569657481730699  4.4986559025797996 13.8377599881208901
  7.4588143202579706  0.4773509904501000 12.5447980306305098
  1.6525018615910398  0.0968605809426000 12.5587608235994299
  4.3689793703420694 -0.0714276750582000 15.6397859990598516
  8.6213298007251904  8.7011615780639993 17.2319296538880700
  2.7948918035577606  8.8095339889668001 16.6829295889850506
  5.6961586115340301  8.6547066536906989 14.2306565320660390
  8.2153310783762699 11.1985567046162995 14.3608315153529702
  3.3115907779235103 11.0084647726412985 14.0881078508641711
  5.7339595326486599 11.4210620227422002 16.9632997950569120
  7.1555414806122304  6.7229046543977997 15.6953589395072601
  1.3600663889207401  6.8865119934218999 15.1596040416556015
  4.3939786958300697  6.6219281435213997 12.5951335968605314
  0.6308185330326601  2.2597882289289002 23.4089098702584018
  2.6810514950976896  2.2394496386016001 19.9673439692708676
  5.7192983560482311  2.0871692589861000 17.0504957303692031
  8.4358717467750903  4.5519770432052002 17.1764142918255196
  5.5177098174638113  4.5994053676256996 19.6635914127217006
  7.1800943814422107 -0.1453275221355000 18.6433656157275323
  1.3830396704855101  0.0141893538165000 18.1087266249895720
  4.1445237062539801  0.1158145285671000 21.2091546509809490
  8.0708081107495495  9.2044708463231988 22.7454699159468205
  3.1692187654672503  9.0107058922154994 22.4802691246981006
  5.6483199375706796  8.7904257579738001 19.8710416655947739
  8.5905551301522287 11.4032592042155994 20.1523579754151605
  2.7621783191761202 11.5094062964888995 19.6038037041898114
  5.6881379946066302 11.5582627863441001 22.6032664067986211
  6.8855413088034911  6.6398073626330998 21.2446592050245435
  1.0802399510434502  6.2595095041592996 21.2604176036323196
  4.1680536952480205  6.8069562123770995 18.1648139377350297
