Lu Se  O 
 1.0000000000000000
    12.8524150000000006    0.0000000000000000    1.9362580000000000
     3.1788230000000000    8.7551769999999998    0.7116080000000000
     0.0000000000000000    0.0000000000000000   21.8118760000000016
 Lu  Se  O  
  20  10  26
Cartesian
  2.6478570116685196  3.5801375614452797 11.5377715023582805
  9.0578914339692709  3.5547190938200295 12.6176813324710810
  3.1554075362389602  1.4127263428876899  8.5035473745162200
  9.4365650187146599  1.4820537742033402  9.3171568925375219
  6.1573121333814402  2.4182287412876602 10.4845970028951996
 12.3742903396759214  2.5149818521075802 11.6718703087307603
  5.7210562486147598  4.7369007014246902 13.5552681338523815
 12.0273569416378603  4.8967422168782901 14.4259768035811398
  2.1573237176864200  6.0433418220854804 14.3573129792095209
  8.5430202565689104  6.0489764788991405 15.4322374965845412
  4.2426651914971298  4.4937921120431197  8.6307893291413809
 10.6954464742889499  4.5087270431767994  9.5847618285781806
  6.8588098656969301  7.9694406633748196 13.3009725119377809
 13.1077307537519694  8.0803256804939796 14.4782814309975816
  6.6284699135174003  0.3855806216331000 14.8803615252339618
 12.8035355989925002  0.4178806583803500 15.8227570821589030
  7.2019485413373410  5.6433299546515103 10.5973093294704999
 13.5434897891778814  5.6957929889262191 11.4469598371081602
  3.7745084835071299  6.8939030651505204 11.4878151591171420
 10.1893443050769807  6.9542813922956199 12.3909847333830818
  4.0608121754234396  2.0461245258518099 13.8091895311508210
 11.0533419068604708  2.1381227000430298 14.2557527050266817
  8.1550857673907409  8.3644372152161104 10.7872174832325030
 15.2103931751984511  8.4525643754485493 11.0556060792630415
  1.5858160763424003  0.8634184831448499 11.1794912905030621
  8.0413707620674604  0.8570470781866401 12.1147826223011599
  7.5832704383128604  3.2575078006151896 15.2025860623200604
  1.8511593933603601  2.7811040370960400 14.4341193752929211
  4.6006937869884501  7.7093150742171996  8.6235385532688600
 11.8330857446542588  7.2425610041321393  9.8027781265334806
  2.8293099262025301  5.3768375132277200 10.1537015937565016
  9.2639458470218194  5.3625834722093293 11.1352415145866210
  8.6084110190958700  0.0519097946400800 15.0698788863112192
  6.1844933039758505  4.2714766302777001  9.3795237367251012
 12.6716209007365599  4.1253161295078398 10.2957514487509201
  5.8688929134956407  6.3842372460353598 12.1353144985488406
 12.2292887317126695  6.5041924514229805 13.0574245338338208
  8.8178767337216009  7.7100487580497994 14.0176481834602011
 15.2589445346518708  7.6806991283997794 14.9102292281471804
  4.0073058629465104  2.7608979640977402 10.0444545546706596
 10.4115751825632614  2.7554264162315900 11.0424271495460999
  6.5931424318160801  6.3065834662891698 14.6607874729210224
 13.0191978382470097  6.3015493270659402 15.6283459834674208
  7.4353271311765710  1.7181640004017300  9.1611571709370399
  7.0146167587141210  3.9994974069797800 11.9749496620557210
 13.3980689115460407  4.0347811204968602 12.9443275553761605
  3.5437298350009101  5.1290175004471399 12.8470694477897407
  9.9575077278142192  5.1373232742117292 13.8656048365926203
  2.9839262049669797  7.4101673985152701 15.5571156718969803
  9.9059088766360315  3.1581325142837695  8.3379166698251197
  9.3434700259994603  7.4892586907730898 16.6469714541601412
  3.3505345330156402  3.1294213996923599  7.4489862878342397
  5.2137955865522105  1.2539827266298900 16.2667339615324806
  4.2803638674414097  0.4859409529287900  7.1196691611406004
 11.6050662296274396  1.3033121079527601 17.1910687508439608
 10.7929968607701809  0.3580627501150200  8.0999848012588807
