Rb  Y  O 
 1.0000000000000000
     9.9022559999999995    0.0000000000000000   -0.7018440000000000
    -0.0810870000000000   10.7916380000000007    0.0405370000000000
     0.0000000000000000    0.0000000000000000   39.3678689999999989
 Rb  Y   O  
  24   8  24
Cartesian
  5.9451923836837492  3.3077603954223398 21.4607888201582888
  0.9535212797739899  8.7035793954223415 21.8319796857632191
  7.6783964241968699 10.5488389870492210 14.8539762768263408
  2.7678115175653200  5.1530213899621602 15.1846337469568109
  4.1327698276845295  7.9622109156103802 24.4085941273029299
  9.1244412367706698  2.5663908364465802 24.0374040239463582
  5.7912076928286300  4.3779515959236202 17.7646855537065704
  0.7995332148539999  9.7737715671710408 18.1358798110163093
  5.6884014741604503  2.8294238468982202 14.2979633686462595
  0.6967335219443399  8.2252451131422006 14.6691520497804291
  4.0299644775150298  6.4136861882436209 20.9418726777844029
  9.0216365854351803  1.0178653536651601 20.5706801603890206
  3.6801823747718099 -0.1624688655046600 15.2897438854728982
  8.5907659778926799  5.2333508899100005 14.9590829715813403
  6.8432273596865096  8.6093161641544214 21.0850256770376383
  1.9326391982844000  3.2134968404052806 21.4156817975759530
  6.2220736268499302  0.1624686496719000 23.3762807200376699
  1.2304020343143300  5.5582867863408607 23.7474727985279088
  2.9779409479664398  2.1823217279292000 17.6215359780073797
  7.8885275379815090  7.5781393250162603 17.2908748454552175
  2.1427750748823597  0.2427958833757600 23.8525839612421713
  7.0533599604312904  5.6386162862887002 23.5219249269365562
  3.8759807841833398  7.4838764174974806 17.2457685501425679
  8.8676477250912296  2.0880579570793802 16.8745764066242074
  3.7021938221391300 10.5423193268679007 20.4493558116986698
  8.6938632760074590  5.1465090680946801 20.0781761142270696
  5.6331218259717897  7.0984972041269012 13.9310934918732698
  0.7225364428774500  1.7026771249631003 14.2617505940937388
  4.1880405857362799  3.6931346446394402 24.7754642311118403
  9.0986247756946792  9.0889553713015214 24.4448103649743906
  6.1189852230228299  0.2493260114459400 18.2572007758413299
  1.1273012193251399  5.6451354068881203 18.6283846512101690
  5.6627805008092800  0.8905276944220800 20.3127700221657612
  0.6711069075507299  6.2863485290005405 20.6839614638016727
  7.4757856182593994  7.9441292023922410 14.3453871549963008
  2.5651984422176697  2.5483105261413801 14.6760502939988502
  3.8936957349437695  8.0757929055603803 14.4783222124486581
  8.8853626912581909  2.6799723947310601 14.1071269117987494
  1.8714322265553598  0.6514575161494400 20.5113886416722160
  6.7820190405633900  6.0472716599123402 20.1807392924720403
  3.8885233602205793  9.1255275849852406 21.9847017945201806
  8.8801978479256487  3.7297063187412602 21.6135059576312401
  0.7074657776228999  0.0082381206164400 15.4418925423512992
  5.6180542352818197  5.4040575522819596 15.1112364011630387
  5.9274756456520201  2.7158445548577199 24.2282380423671704
  0.9358041334889698  8.1116651736034200 24.5994309105198568
  7.9497358838633394 10.1401802680178008 18.1951620040009878
  3.0391540104420001  4.7443675271678405 18.5258141569784982
  5.9326445716138796  1.6661076091888802 16.7218575163922125
  0.9409715660037300  7.0619293070983806 17.0930473444456830
  9.1136989546765790 10.7834011743801206 23.2646662211978494
  4.2031143556540194  5.3875821743801202 23.5953193345376029
  2.3453893166072399  2.8475096609388002 24.3611689156386007
  7.2559725366117904  8.2433276896913803 24.0305147158726058
  4.1583838028687401  9.9011027514313206 18.3937871685204897
  9.1500624958373393  4.5052884997520408 18.0225926309024373
