Ba Sb  O 
 1.0000000000000000
    18.4427780000000006    0.0000000000000000    0.0000000000000000
     0.0000000000000000   11.3089540000000000    3.7696510000000001
     0.0000000000000000    0.0000000000000000   52.7751179999999991
 Ba  Sb  O  
  96  48  24
Cartesian
 15.5010558712821407  7.1226941835688997 14.5192936215016104
 15.2838427336871003  3.7604268080380998 18.2722203310883877
 15.0861964614111592  0.0649841900120400 14.7380779897228198
 12.3561087143711212  7.5686949019882599 18.0872108011045292
 12.3744690531534598  3.8129433286232999 14.7836019003021324
 12.2968677450184192 11.2855984089305803 22.0646445686377284
 18.4426972206323612  5.5160554030400002 16.1176802786963584
  0.0001278084515400  2.3988545308532201 12.7384427705382102
  0.0000175206391000  9.4091992323718792 20.1154595283031803
  0.0000112500945800  9.3952124311542207 16.3647059194991904
  0.0000162296446400  5.6810661602866404 19.9912201339550002
  0.0000182583502200  1.8042030404017799 16.4104635710552103
  6.0864752676043201  7.5687297335665793 18.0871369159384479
  6.0681335560277603  3.8130686318336204 14.7835861431565903
  6.1458132459692996 11.2856134498393992 22.0645946961508415
  2.9408826134632999  7.1229795084783198 14.5190931891355390
  3.1588703477343403  3.7604979413587603 18.2721891560704606
  3.3562844254352600  0.0650339494096400 14.7379974699701002
  9.2213113559046196  9.2484084113103400 16.0312758941911895
  9.2213655776719410  5.6786934286479003 19.8832746238914915
  9.2213530365829008  1.9191393325899799 16.5117986554767491
  9.2213500857384201  5.7277701046949199 15.7795618536335205
  9.2213582005607400  1.9613177728760800 12.7243323359891782
  9.2213653932441613  9.4657354075668394 19.9689266975989028
 15.2461995483668602  7.5471136858014400 21.9752471943651386
 15.2826765968341611  3.7805847923640199 25.7459554723696087
 15.2697430454783198 11.3064170623491798 25.7741491827368279
 12.3620030262199201  7.5249381840819192 25.7572629368568187
 12.3483570303499395  3.8093695860697601 21.9629794864389432
 12.3769802218059404  0.0054712719452000 25.7619288242281996
  0.0000059016889600  5.6590317943130390 23.8076669665705190
  0.0000066394000800  1.9001880136558598 20.1432577674356494
  0.0000012909944600  9.4296675343955609 27.6517933480410818
  0.0000029508444800  9.4172707721102995 23.8918834070099706
  0.0000009221389000  5.6658614978127204 27.6027872978799778
  0.0000022131333600  1.8834479344973600 23.8926511360459983
  6.0807651991077396  7.5249353568434207 25.7572572446834513
  6.0944069531387806  3.8093732049350399 21.9629722487083789
  6.0658036798830199  0.0054719504824400 25.7619248283978166
  3.1965954189889003  7.5471158345026996 21.9752009407438109
  3.1601043540103197  3.7805855839908000 25.7459536252404604
  3.1730441759106802 11.3064175147073396 25.7741482780205082
  9.2213749834887206  9.3789043540385197 23.8446963079556795
  9.2213886311444409  5.6333785630594395 27.6197214769923818
  9.2213884467166611  1.9074012037856800 23.9166332799554198
  9.2213897377111191  5.6737379580946401 23.7922136577183174
  9.2213790408998797  1.8708072380743201 20.1934283210150980
  9.2213886311444409  9.4240553528835207 27.6354078803322807
 15.2872245858889606  7.5337855180647404 29.5262265248635316
 15.3158496216227604  3.7299624084842797 33.3253138695844555
 15.3021464531409794  0.0143124990928600 29.5308903766233684
 12.3944167618382615  7.5417935014816804 33.2836660627319390
 12.3814998089826194  3.7587008354786202 29.5422126558392506
 12.4180201979782190 11.3011982062572596 37.0826081601907518
 18.4427759712944201  5.6319641521826602 31.3715957281196935
 18.4427757868666404  1.9058094685101801 27.6683977588417669
 18.4427722827388187  9.4692177737720602 35.2132477841962697
 18.4427768934333223  9.4242192196269805 31.4223949252856265
 18.4427697007498992  5.6683655264073991 35.0948599836795978
 18.4427778155722208  1.8655969767874401 31.4959957104743609
  6.0483730415396604  7.5417931622130601 33.2836580333747065
  6.0612800352951801  3.7587015140158595 29.5422118265159490
  6.0247843596221005 11.3012037476447205 37.0825862585166419
  3.1555545206777200  7.5337852918856605 29.5262259217193268
  3.1269270873827804  3.7299634262901398 33.3253120978483253
  3.1406337599923804  0.0143114812870000 29.5308905651059632
  9.2213901065666803  9.4185400891072586 31.4059311996178288
  9.2213904754222398  5.6390808769348597 35.1449644175730711
  9.2213908442777992  1.8802389057103202 31.4805848478972621
  9.2213895532833412  5.6558651741034991 31.3954723217944291
  9.2213890000000003  1.8734058095244399 27.6854844957396971
  9.2213899221389006  9.4310074192654803 35.1657891948524437
 15.3672732506645993  7.5625890846341202 36.9932674814766358
 15.2895537243225803  3.7266178984283198 40.5047150914290413
 15.3080210312173204 11.2795370357656601 40.9706849264186488
 12.5777763361365000  7.4743706486290797 40.5501760111405787
 12.3803425246631207  3.7787241301623999 37.0160886689924169
 12.1622542772519804  0.4162835014563200 40.7687375552838205
 18.4427586350831021  5.6202057803507000 38.7765967073101123
 18.4427639834887209  1.8606650288584998 35.4050798004820706
 18.4427335529050218  9.5997306799312394 43.0268369275518836
 18.4427601105053398  9.3824832987109001 39.0889915347427888
 18.4427586350831021  5.5780083410218797 42.5643379851629433
 18.4427532866774797  1.8116223927630200 39.5082471398946495
  5.8648845522232005  7.4743894214927202 40.5501463816810030
  6.0624203522589202  3.7787520632787799 37.0160758144808284
  6.2801194570542602  0.4164115188156000 40.7686435401775213
  3.0755071468965398  7.5625917987830800 36.9932451651409622
  3.1531392544708399  3.7266763657205000 40.5047018599515525
  3.1346612507648599 11.2795509457790804 40.9706483984973389
  9.2213899221389006  9.4390601861402601 38.9422812288549522
  9.2214371356505804  5.1409220186825602 42.5499671053951971
  9.2213427086272208  2.0235286680987001 39.1705023626624040
  9.2213921352722590  5.7350858670375198 38.8777953680530359
  9.2213947172611803  1.8583599247646800 35.2970518104467246
  9.2213913975611401  9.4527479786141608 42.6930787164074559
 12.0836033906209597  7.3119249883287196 14.6989428702382376
 11.7720222465555189  3.7283275860940397 18.3172131179095423
 11.6485817825570397  0.1199080476352200 14.4496321505235308
 15.9594902171615001  7.6670977296075407 18.1377003770439096
 15.8470759524181002  3.5927220317695800 14.6072965215214481
 15.8866045429332789 11.2808348513267003 22.0074971830178292
  2.4832295036600200  7.6670959201749005 18.1379156241323685
  2.5956553873535602  3.5927950876124197 14.6073667878195685
  2.5561398912107602 11.2808345120580800 22.0075229297361190
  6.3592301221408194  7.3119410470434003 14.6989872767299801
  6.6707566755833803  3.7283266813777201 18.3172085943280223
  6.7941462375145800  0.1199255765139200 14.4496416877408418
 11.7443193497217209  7.5436598181602994 21.9711906350073285
 11.7541917687851214  3.7650566938057000 25.7748938040009108
 11.7523142939847194 11.2939369530729401 25.7984428515489697
 15.9073908447337402  7.5453207642342797 25.7262363690766378
 15.9150388803425606  3.7995876801283797 21.9552741309755071
 15.9095331578262211  0.0122791491636600 25.7432368950664525
  2.5353823601439802  7.5453223474878399 25.7262490351049209
  2.5277311892628997  3.7995784067861003 21.9552942609136075
  2.5332433667515399  0.0122779051787200 25.7432412301654630
  6.6984704536562001  7.5436643417418994 21.9712058643984101
  6.6885877066371204  3.7650577116115600 25.7748930877671398
  6.6904635215874997 11.2939367268938593 25.7984311656299923
 11.7546698055908809  7.5269934733818795 29.5448873167052604
 11.7491745954579994  3.7397230535921402 33.3329218926522302
 11.7567776306885001 11.3029280238610994 33.3315277599197302
 15.9118752062044422  7.5542767772650405 33.2594489178408210
 15.9100006822485209  3.7742532482880402 29.5132734571875375
 15.9199542495351203 11.3045931542480602 37.0867200203344041
  2.5309005806622000  7.5542759856382595 33.2594565702329490
  2.5327756579014600  3.7742507603181603 29.5132763221225787
  2.5228274390204799 11.3045842201743998 37.0867297083384386
  6.6881074566979999  7.5269927948446407 29.5448865627750195
  6.6935958430030205  3.7397213572490404 33.3329266047163770
  6.6859970496114602 11.3029296071146597 33.3315267044173282
 11.7775159812661609  7.5674424353327598 37.0502157541133599
 11.8167710653836000  3.9465853092647398 40.6808366243229287
 11.7046902460664413 11.1813565421820211 40.9197517379103459
 16.0154341710911403  7.4195137400135796 40.8387961590136257
 15.8921936268061810  3.8108912058304600 36.9712045235196101
 15.5806928932528219  0.2270481731149000 40.5895981895802080
  2.4273161647418604  7.4195189421324201 40.8387868102783145
  2.5505792092159800  3.8108995744564202 36.9711993967936507
  2.8620967256973202  0.2270574464571800 40.5896160577270706
  6.6652411783946999  7.5674407389896601 37.0502336599570086
  6.6259718933381997  3.9466067962773401 40.6808691187164726
  6.7380517905164599 11.1813576730774198 40.9198550263555489
  0.0013131257936000  7.6060153549045797 14.7034486139004894
  0.0000901851844200  3.7445493758907200 18.2151934615008813
  0.0004758236724000  0.3615373075004800 14.0706242795122574
  9.2215075870625398  7.6363766167979197 18.0035487797094973
  9.2215013165180189  3.5334426436028399 14.4545624288956205
  9.2214677506620610 11.2567826286908801 22.0323386201506608
 18.4427479382718609  7.6036744014265798 21.8962182254672690
 18.4427726515943817  3.7989527954508198 25.7145893344525085
 18.4427630613498224 11.3082543150160202 25.7488432120373112
  9.2213976681056611  7.5157498851359996 25.7811154809923373
  9.2213932418389408  3.7999484357609798 21.9589825631152280
  9.2213777499054199  0.0062201508790800 25.7703279842389783
 18.4427728360221614  7.5330262348931809 29.5179320857657288
 18.4427665654776405  3.7392264774220001 33.3295307520646560
 18.4427678564721020  0.0234916377860400 29.5070901929444425
  9.2213681596608605  7.5400250072551600 33.3089516773127770
  9.2213851270166209  3.7403402963014605 29.5736145300503530
  9.2213417864883205 11.2447979646893810 37.1615217400587028
 18.4427333684772421  7.5914878725961801 37.0258016446504570
  0.0000280330225600  4.0058642450733197 40.8336412848208425
  0.0000448159505400 11.2120168128191207 41.0542640908743479
  9.2215610711187406  7.1776603366800398 41.2175171595677199
  9.2213960082556401  3.7945910449825599 37.0731547806500856
  9.2219926321239409 11.2421076776223199 44.3543485372443200
