Ba Bi  O 
 1.0000000000000000
    18.9529819999999987    0.0000000000000000    0.0000000000000000
     0.0000000000000000   11.3857540000000004    3.7952509999999999
     0.0000000000000000    0.0000000000000000   53.1335199999999972
 Ba  Bi  O  
  96  48  24
Cartesian
  9.5410435299832592  5.6574914428584799 16.1440472874157166
  9.6218812202201995  2.3195985987751002 12.8239604386252495
  9.5468306335071400  9.4492623409565795 20.2762154530474668
  9.5628898742153794  9.4923822407902989 16.4443812907128475
  9.5151198307334806  5.7036414334042203 20.0960553882473292
  9.5339096275584581  1.8967964801553601 16.5356199902490388
 12.6221456624831792  7.3124535971935209 14.5335469310774794
 12.5946124760019593  3.8405505423876800 18.3693107498991210
 12.7202610806411389  0.0895932457930600 14.7300385654021877
 15.5892439024847196  7.6247419440479804 18.2573810902793703
 15.5405377712218371  3.8252874837205200 14.9780137391547790
 15.5978576537440787  0.0001075953753000 18.3964645900907513
  0.0185145995263400  9.2848967992098004 16.2005924501007001
  0.0332331062879000  5.7225952980880201 20.0372077369830279
  0.0347643177036800  1.8850872568842203 16.6306334650113286
  0.0414537727005800  5.6834650803134403 15.9578826133637577
  0.0395918317489000  2.0595377302364999 12.8325169186649486
  0.0377196561869400  9.5287520963651193 20.1283905207700755
  3.0718407578456195  7.6066877816452596 18.2266920806672879
  3.1522573128225200  3.7693029342997404 14.8101400167802080
  3.0761872452076795 11.3561517227452402 22.2203686388718573
  6.0563988639251995  7.0802937465470004 14.7384231132936989
  6.0867890229131003  3.7601182742630201 18.4014473859707266
  5.8747851359171390  0.0080767123149800 14.9085542159106694
  9.5360382369668777  5.6956423719315197 23.9687019752596804
  9.5341827400290793  1.9047792599998399 20.2910690227829598
  9.5288967533492794  9.4914308471860593 27.8393817198032920
  9.5322599600051792  9.4847323803927797 24.0593805984893692
  9.5268104090907197  5.6947042996594597 27.7907971792681892
  9.5274612544926001  1.9002866691865199 24.0631820939489778
 12.6405641703907783  7.5912688520058396 22.1015347522455592
 12.6109562009700191  3.8035016404443001 25.9235075121730532
 12.6221105994664793  0.0013234800449600 22.1501680728898407
 15.5711985787926999  7.5852018391294003 25.9214543285656980
 15.5797636208883201  3.8179928588477998 22.1331269466920979
 15.5670194462616980  0.0042360697757000 25.9342822221769467
  0.0260573177728800  9.4618258373503412 24.0098264568789048
  0.0540353307416400  5.6859388630850205 27.7970573709245308
  0.0570664811529000  1.9062980057259000 24.0843134084842490
  0.0436525081424000  5.7033394832081399 23.9543334946340067
  0.0365383168188800  1.9012683488964002 20.3348108896349977
  0.0557031931576400  9.4857770233222816 27.8215028598238199
  3.1193257484782397  7.5811888162745600 25.9263008647910382
  3.1088949748345396  3.8245108614401797 22.1205104300752673
  3.1350614617837400  0.0011402832631000 25.9460007442244489
  6.0755652565025189  7.5811757226574601 22.1614051095787907
  6.0884970656509392  3.7991355453579199 25.9350385108952750
  6.0751115221134393 11.3797055459025813 25.9613730577400688
  9.5335686634122805  5.6842106194853601 31.5794407339248409
  9.5305367548817390  1.9045620198135200 27.8667053487530794
  9.5025558989656798  9.5144353077128994 35.4491516253875432
  9.5322110613116209  9.4904550880682610 31.6375160213965891
  9.5130725296178404  5.6892196681001197 35.3289390400457819
  9.5201505207457391  1.8871196139732203 31.7094216724948232
 12.6115700880569985  7.5893403329933200 29.7177743479735774
 12.5854070126445610  3.7659686162408401 33.5432509992176620
 12.5958190228360785  0.0092840576691400 29.7374923687091091
 15.5516093451869590  7.5965134718708605 33.4976366769248912
 15.5649852227036387  3.7913474619068399 29.7287368469702571
 15.5520683864109994  0.0093092201854800 33.5023443267194168
  0.0524097334755000  9.4848199368410402 31.6196226635559547
  0.0577008374604400  5.6857405232503400 35.3726861822961069
  0.0595371918864200  1.8948769558885001 31.6950382006237490
  0.0509689277838600  5.6901684429809398 31.6006115949820057
  0.0503159975539600  1.8957450057734602 27.8729818220399892
  0.0557659275280600  9.4914834493695395 35.3996636729637117
  3.1456093648561998  7.5891556560634399 33.5135990872327554
  3.1344578093070399  3.7869678177732000 29.7402867080925972
  3.1640420875002997 11.3849680414013807 37.3574554368738703
  6.0905288253213401  7.5862521749359004 29.7294784101128506
  6.1032737580672398  3.7725034697491400 33.5306087507955084
  6.0947126960978402  0.0052779801242400 29.7422753344727582
  9.5113112290005795  5.7054169278829798 39.0330246195842605
  9.5097610646027988  1.8679487368181802 35.6264843530638657
  9.4950402834833998  9.6914202499055797 43.2582544303217702
  9.5142633454768983  9.4475181573013209 39.3305528728979752
  9.5161036800290990  5.5309812560109002 42.8310695874881446
  9.5180291134704795  1.9070215703926001 39.7057669698692948
 12.5526954924212983  7.6200979227064600 37.2385992341686887
 12.6287702982816405  3.8211797313923999 40.8535119574614001
 12.5483431296348193 11.3695913529092998 41.2322861534085447
 15.3512856124081374  7.5824156312680593 40.7551519924734862
 15.5633135696912390  3.8303568768314800 37.2622945357300210
 15.5328758387185193  0.5101870974245001 40.9252548204677495
  0.0703508157665200  9.5270083681400202 39.1827652858946252
  0.1454154276862600  5.2708830421991797 42.8397485782453700
  0.0645608692953400  1.9329796093645799 39.5196273824298672
  0.0574453512630800  5.6936736612073799 39.1281218555468726
  0.0386290202633000  1.8868308712517801 35.5676637998974670
  0.0862792808989600  9.4837409089344593 43.0147038176490852
  3.2437499904802198  7.5009519276885399 40.9337240404162088
  3.1180869815747196  3.7499313263016800 37.2944339423349192
  3.1456417744554197  0.2780157471664400 41.1300054937196577
  6.1213717710492199  7.5904089998637598 37.2672438574908327
  6.0639967353493596  3.7652549571801206 40.6855912119193803
  6.1126602224027398 11.3515548384252813 41.2015126994515199
 16.1673132650214768  7.3402753702377597 14.8201687963126378
 16.3433747169526384  3.7377894443785400 18.4945272184824070
 16.4535552243921579  0.1693440765408200 14.5688074008262287
 12.0584017218612978  7.7056607254410601 18.3042998071141874
 12.1386736655855394  3.7255863070988804 14.5954308418795193
 12.0871799297300999 11.3799244939520001 22.1355998755991976
  6.9195316894118788  7.7237887813872401 18.2318727842220589
  6.8446871216131591  3.5427696955649401 14.6666897684860089
  6.8893822332953798 11.3522574533046203 22.1939824950339322
  2.7992189799295999  7.4164691775783806 14.6666167538485688
  2.6228137209049600  3.7719570674146801 18.4126272474208221
  2.4852548728471597  0.0609614902092600 14.4472231096652894
 16.3718760217544173  7.5998332161646411 22.1350544884453591
 16.3738397402194380  3.7927715920171599 25.9500357507749371
 16.3679470685858170 11.3679588635007800 25.9806763141881696
 12.0904117922207384  7.5971024569252794 25.8977545769519182
 12.0780643035073787  3.8242398804949804 22.1011788615038682
 12.0917381219010984  0.0111811520006200 25.9200264984995314
  6.8979842337058992  7.5901323260415605 25.9104355749075381
  6.9034749125912995  3.8210213555542598 22.1044023963783900
  6.8988179753840795  0.0111939040451000 25.9233648775606511
  2.6073149198744598  7.5970910711712802 22.0929577115129163
  2.6163786149264996  3.7918796320487997 25.9461992070443976
  2.6123395449324800 11.3760748566670600 25.9707964394587911
 16.3753029104298378  7.5793215526185609 29.7402682722326404
 16.3799767157910381  3.7694955812574200 33.5592647209151309
 16.3744742860567989  0.0003868879209200 29.7532046720057828
 12.0888477921460993  7.6002055303204408 33.4880738197138612
 12.0928832610735402  3.7986456163633000 29.7174467706983449
 12.0838453420770193 11.3791972858440200 37.3659231743634237
  6.8914609963611397  7.6083165137549607 33.4781997137668341
  6.8973491192790801  3.7977578691239202 29.7136025985122778
  6.8953778196212587 11.3764619723030602 37.3238265492407919
  2.6152450370730800  7.5793338492328806 29.7436155321821190
  2.6015719767986401  3.7662696555766004 33.5624921648988987
  2.6139185178629001 11.3791725787578404 33.5611372772015599
 16.3659120869084802  7.6240200872443795 37.2649011613763648
 16.3212114788614784  4.0477128562696603 40.9969584484566880
 16.3960160558681771 11.2524608640644601 41.2270132631976836
 11.9617642572396985  7.5295752578143809 41.2163895078169702
 12.0993528614792396  3.8185707997208405 37.2509723143968543
 12.2757613425108190  0.1740568678365000 40.9970002661257524
  6.9770640348623392  7.4212067898177807 41.0947594459232661
  6.8668871284893997  3.8527353486034004 37.1690420951815028
  6.6908067235762401  0.2502512444648200 40.8433570237698333
  2.6106788846496398  7.5963630660605208 37.3232828699503756
  2.6622057882235799  3.8648896409984004 41.0682029531079991
  2.5818669404728802 11.2705771926840193 41.1546620314770308
 10.2031619760270384  7.7401764109769813 14.8968585539692686
  9.9090643846769986  3.7774899745709805 18.3279685850786720
 10.0992374688860789  0.3110613041458800 14.1637176287744193
  0.3317512911596200  7.6771944048628793 18.2033990639431202
  0.5016285745940000  3.5222660020466603 14.6134096007425907
  0.4340153275475599 11.3386489724087394 22.2054692794249107
  9.8718033906544598  7.6424906266708801 22.0582224301543164
  9.9096663313853206  3.8141041684266401 25.9000089468863557
  9.9237015831457800  0.0059471208868200 22.1291371044020302
  0.4415207084195600  7.5739544220405000 25.9515724955133500
  0.4174310892379199  3.8042092650554000 22.1403588747130975
  0.4347711724697199 11.3837790271111601 29.7502449341743365
  9.9112695641326987  7.5925078497561200 29.7086535237161762
  9.8939463490548789  3.7863105181947798 33.5232916573315620
  9.9180388111838180  0.0165806181200400 29.7120608060892586
  0.4472071716090200  7.5845723207907394 33.5345196898075102
  0.4331700245503600  3.7764132238151999 29.7636476955131961
  0.3953095477071599 11.3337786022777003 37.4007105265723467
  9.9105696305074407  7.6376579433855802 37.2534087600121637
  9.9781868576800985  4.0682673302507801 41.0501684040467723
  9.8083423629045789 11.2990874622726398 41.2554971927017604
  0.6227735716503400  7.2794096342196397 41.5000149186554594
  0.4325682673718600  3.8130151210565404 37.3357195579082060
  0.7266126008424799 11.2360381663524009 44.5620726569438048
