Ni  O 
 1.0000000000000000
     8.2826799999999992    0.0000000000000000    0.6026600000000000
     0.0000000000000000    8.2629699999999993    0.0000000000000000
     0.0000000000000000    0.0000000000000000   37.4417469999999994
 Ni  O  
  36  44
Cartesian
  2.7382699935723998 -0.0007119374952000 22.0533618826064881
  6.8799750112799991  4.1296054222140999 22.3542717617909759
  0.9079016612063999 -0.0006537661864000 19.8382886578400495
  5.0488349816184002  4.1316338160896997 20.1393689097616857
  4.6027861590423997  8.2621822910698999 24.2311686000659705
  0.4616571189020000  4.1279117612532001 23.9297247757890226
  4.8302618482159998  2.0419693569020998 22.2245713671653782
  0.6899270342607999  6.1714566186452000 21.9221257305157309
  2.9872866142755998  2.0684963000118999 19.9790355631084395
  7.1292845903747990  6.1981441112620992 20.2787323039785399
  2.5184319292803994  6.3417680811328996 24.1146600995179199
  6.6586456504539990  2.2091491537597996 24.4168419469812967
  4.8314928201175995  6.2203574535130999 22.2235058565996297
  0.6881129616871999  2.0860508971471998 21.9233910619205723
  2.9883710655679998  6.1964592090493991 19.9768177926212616
  7.1292932043619990  2.0630320805805997 20.2797640764573188
  2.5166571166099998  1.9183193817825999 24.1154595168587207
  6.6593033780727993  6.0485866678936997 24.4157227449579111
  5.5503695603412000  0.0042075869537000 15.9907632315315400
  1.3997585081368000  4.1320632426405997 15.6877102871977403
  3.6963291628815997  0.0054744655141000 13.8089954700028095
  7.7964480038843993  4.1122296357495998 14.1172152719590507
  7.3759717901547992 -0.0006913626999000 18.2067653079744716
  3.2323547157691999  4.1331460222293996 17.9030298593817321
  3.4512224640991995  6.2244662153455996 15.8180338008244181
  7.5913029997783994  2.0868448859345001 16.1226449129145806
  5.7521325805495991  1.9331204267950999 13.9225043811692490
  1.6108116307135998  6.0536502159096992 13.6255336122205790
  5.2945329809259993  6.1957691684246994 18.0640871083661487
  1.1534344210479999  2.0637593871999997 17.7646872003419105
  3.4615011043255999  2.0457963514575996 15.8287059992910404
  7.5911125809651985  6.1710141366016993 16.1200947538193979
  5.7607502949555993  6.3450142715270994 13.9319549408642693
  1.6626733830531999  2.2247927738232001 13.6364289444276512
  5.2959607493043990  2.0682470062069997 18.0687001044881619
  1.1522894233647998  6.1993249723047992 17.7634188573309579
  4.6011367461471995  8.2628420892243994 22.2287526937339592
  0.4600294894552000  4.1284135714212997 21.9276620324571390
  2.7696032063587994  0.0005976606201000 20.1687225840941800
  6.9103740205891997  4.1302039091311995 20.4692024275637827
  0.8556732346231999  8.2611227304267985 21.7355572004195317
  4.9970368402611998  4.1309489811360995 22.0363078220870889
  7.3278838753035993 -0.0008838899009000 20.1063873024410213
  3.1853262385168000  4.1325345624493997 19.8031879759071003
  2.6335476805119997 -0.0009067783278000 23.9625749914039758
  6.7748131363919999  4.1289433104279993 24.2628639287419574
  2.7548808254855994  1.8849537568116999 22.0965131306167599
  6.8976986212511990  6.0150569403385994 22.3969037859678402
  5.0562952743211991  6.0041690726586996 20.1378632936719200
  0.9146822771883999  1.8720032039307000 19.8377171821643721
  4.6947514055399999  1.9105511157964998 24.3737343546728198
  0.5552226620023999  6.0398717134346986 24.0706333547790798
  4.6957832618143991  6.3501466500831993 24.3719392187929742
  0.5525467765748000  2.2169701374944997 24.0724897123135406
  2.7560402350320001  6.3771094648604993 22.0952282462757701
  6.8960670161179998  2.2435205474390996 22.3975170541282864
  5.0554810040503995  2.2589370184571997 20.1389254264899691
  0.9152215624831999  6.3897312341651995 19.8366226852578080
  7.4304685114827995 -0.0007049139707000 16.3112377329938205
  3.2843613321819998  4.1336714644916999 16.0054415249992772
  5.6742825116543996  0.0058534053183000 14.0784302383245095
  1.4850107253211997  4.1320991865601000 13.7705824903463991
  0.9563116066559999 -0.0000918842264000 17.9390899726522584
  5.0952791157967994  4.1324238386514001 18.2395587929945293
  3.6877016749131997  0.0047283193231000 15.8079352337827288
  7.8216850813639986  4.1293223328618991 16.1221513258269482
  5.5145565772499987 -0.0003642317176000 17.8751817866653191
  1.3712514285931998  4.1313279209402998 17.5707711200840997
  5.5293207856571991  1.8863587096007997 15.9596976416399396
  1.3844801937819997  6.0167679535364993 15.6456414619093103
  3.6198094580480000  1.9228961582358999 13.6756757939406697
  7.7220216635940000  6.0304963824132995 13.9776700850013302
  3.2253420190936000  6.0054805712570998 17.9040266355562778
  7.3704553596211992  1.8721014506439997 18.2089627560205400
  3.2243938178871998  2.2600988746688997 17.9072442795911400
  7.3674565325003991  6.3900050689910000 18.2070379621126790
  5.5263864806135992  6.3804622475676993 15.9464735046167103
  1.3900761380436000  2.2452501523194996 15.6407794540031979
  3.5788139192539998  6.3600075958514992 13.6694953729438708
  7.6921902663451993  2.2169118009263000 13.9878009945625799
