Ba Ag  O 
 1.0000000000000000
    12.2597609999999992    0.0000000000000000    0.0000000000000000
     6.1298800000000000    6.1298800000000000    3.7358600000000002
     0.0000000000000000    0.0000000000000000   41.0944599999999980
 Ba  Ag  O  
  14  14  30
Cartesian
  3.1299806067523197  0.0577100004552000 14.5540397310339991
  9.2609978482058004 -0.1435163058904000 14.3572160216512010
  6.1041426058752402  2.9701941227680000 18.1825659328492009
 12.1771032926476401  3.1045658123756001 17.8833636326269989
  3.0743085508158599 -0.0545278571496000 18.2705354984616015
  9.2367142582330501 -0.0568006327572000 18.2208368298611987
  6.1387641031492395  3.0497746155812000 22.0271715872451992
 12.2660478607347105  3.0796531218724001 21.8700548394583976
  3.0731395122758598  0.0561758753876000 21.8925691491827976
  9.2348914063795178  0.0570832815240000 21.9366231201162023
  6.0463558502230104  3.0239642041520001 26.0144059134033974
 12.2343235159674801  3.1583944954123999 25.7146557866708001
  3.1259770688614301 -0.0607348510400000 25.6041051888743993
  9.2549044782123513  0.1455839144144000 25.7997562118031993
  3.1248239141807699  2.9644371846672000 16.4357272222770021
  9.1453270708055605  2.7848409567860002 16.2690658004934008
  0.0438309164097800 -0.0340698117412000 16.2931943006065971
  6.1509667988838395 -0.0043433877728000 16.2935295193243981
  3.0557109735971899  3.0762143204912000 20.0231654644885992
  9.2278619654355794  3.0690094434356001 19.9982268057758006
  0.0050198204097000  0.0003745969668000 20.0792522668959990
  6.1744148173821989  0.0004408609696000 20.0798157840184004
  3.0974396458466096  3.0622858845575998 23.8959745456513986
  9.1860412245883101  3.0558774015116001 23.8748683936367989
  0.0433444433920200  0.0358265127516000 23.8672688698661979
  6.1483704259820993  0.0044488217088000 23.8657863311837950
  3.0114788374837902  3.3435247789576001 27.6299227566549988
  9.2541347481061891  3.1640225834355999 27.4618877338665968
  4.4861313589774801  1.3212117772416001 16.4142204739946003
 10.7627812406386010  1.3484053347939999 16.2988150514109975
 14.0292921890257496  4.3674168411011998 16.6744243184697964
  1.6704511106872300  1.3622648708764000 16.4412814747734011
  7.5780735362582092  1.4735436474564001 16.5154864883674009
  4.5083966157378503  4.3479132793076003 16.7370104712363990
 10.1067688406240990  4.4287328660640002 16.7483259802318010
  4.6193318666314003  1.5412221813651998 20.0351170783661985
 10.7144427034857888  1.5432907706699999 20.0500930577067997
  7.7400740093554301  4.5869342189764000 19.8266792153395990
 13.8255498295776071  4.7013451803399997 20.0320450806881993
  1.5378675432238300  1.5380216484196001 20.1188562681903989
  7.7019281930727894  1.5689191246631999 20.1677280415383997
  4.6869250136205300  4.5865454006880002 20.1408202110195980
 10.7811537588119890  4.6114046386376000 20.0731476848629988
  4.6503017414225898  1.5150028456411999 23.8242553733013978
 10.8147107525443804  1.5438895373483998 23.7504605571353977
  7.6671592641730211  4.5934481359584005 23.7767397171333990
 13.8317463531087093  4.5636672786555996 23.7299107493920012
  1.6069212596529301  1.5428207314716000 24.0692939424097965
  7.6929985622304002  1.4306636043864001 23.8651426425057984
  4.5841557280886294  4.5863645692279995 23.8465553940961996
 10.7500498886628595  4.5906716681111996 23.8635309551432009
  3.9742614804149996  1.6987689243924000 27.1513544955471993
 10.6374330567327391  1.7802762836847998 27.1582268715274004
  7.7988732796033293  4.7669003851155995 27.4538280642197989
 13.7071836183877487  4.6572125575907997 27.3783612265522009
  7.8967778303855196  1.7645542448632001 27.2233786261489996
  4.6320773404130406  4.7795691307092003 27.6000813420711992
 10.6168079688085601  4.8059686236064003 27.4824738168105966
