Zn  O 
 1.0000000000000000
    10.0590840000000004    0.0000000000000000   -1.6445510000000001
     7.2593909999999999    4.5082220000000000   -1.6445510000000001
     0.0000000000000000    0.0000000000000000   36.1801269999999988
 Zn  O  
  24  22
Cartesian
  3.2219807864776202  1.9691925417377201 13.6295694588000202
 10.3913080767142194  0.7717013025252399 10.8614918135700709
  5.6212848855326696  3.4080467285927800 11.9197292110649187
  5.5428192167349595  0.4690202692540800 12.3388276553250602
 10.2499203947836506  3.2060571943493801 11.9717131330743989
  8.2635028648523097  2.1010850394874998 10.7907078818355995
  3.2519427497525699  1.9999090869236200 17.0061880400992287
  0.8209439757178201  0.4566809951467600 15.3828186053915577
  5.6316145561355695  3.4635821629441796 15.2982952204956000
  5.4000653109267596  0.2235219746531200 15.3744099835905796
 10.2988158381113415  3.2457437488486800 15.3586955945339607
  7.8902104884742812  1.7398936412493600 13.7340384443547201
  3.2217918287440499  1.9638800980151401 20.2533378107495672
  0.8040878032105799  0.4727668722293999 18.6287747124562202
  5.6846515894634697  3.5236853278259801 18.6131526484972412
  5.4777677402652305  0.2444524321791800 18.6892294553575340
 10.3058824994288099  3.2232800450204198 18.6045278833363312
  7.8445590499001696  1.7285409915267400 16.9810947058183004
  2.7327694617586800  1.7894276403099201 23.1965664275435017
  0.8612927657958599  0.4990068882159600 22.0155873246641001
 15.4609811801036106  3.5046551309551397 20.0039956756617094
  5.5324685759673597  0.2292156787102400 22.0680672104425071
 10.2399185493753304  3.8009881368281002 21.4809482218491787
  7.8853192870877091  1.7418345660670200 20.3579180008537897
 12.1900434386112018  3.6789993011679201 12.0354126716348109
  7.4402871806880899  0.6756899240023400 12.0212038791499793
  4.3773854267328298  1.9287715978746200 12.0611424941320315
  1.9444867088402700  0.4268484221306200 13.6791630871437793
  6.9989444694258296  3.4807686773458997 10.5072392746420391
 12.2460503818510809  3.7087867468818398 15.3844289412557700
  9.8384032001541613  2.1990214288044001 13.7156011843222192
  7.3611762593976904  0.6716639014274600 15.3341819594600981
  4.3418356751643303  1.9307116661301000 15.3339507014506609
  1.9775884284777601  0.4473346394608000 17.0057695499080381
  6.7992182369600398  3.4294347706518398 13.6812045546166878
 12.2502230654231692  3.6909757986509000 18.6617296355643418
  9.8012259306251099  2.1825001025587798 16.9815576482303214
  7.4235208083461099  0.7210436291311799 18.6534361445642176
  4.4136650079940498  1.9644836587765000 18.6530927117108689
  1.9465811097318899  0.4212547104374600 20.2716993556460316
  6.7849799627191496  3.4408835356675000 16.9585752574655793
 12.1153015743056116  3.5344326585806600 21.8354241072763706
  9.8340634298685607  2.2030335660555203 20.3080288466508279
  7.4097959367122996  0.6882505067276400 21.9265254056933472
  4.3752258389860197  1.8955319811642000 21.9662517255549581
  6.8366537694577802  3.4778692143666001 20.3074124519064974
