Ba Co  O 
 1.0000000000000000
     8.5883730000000007    0.0000000000000000   -2.9571610000000002
    -2.4790890000000001    8.2227890000000006   -2.9571610000000002
     0.0000000000000000    0.0000000000000000   35.4859310000000008
 Ba  Co  O  
   6   6  16
Cartesian
  1.9905578777783401  4.5841677004937207 10.2614538722952506
  7.5320585181887107  0.4691608470581300 10.2607941000949197
  2.9639017672791002  2.0626177136781800 13.3020985405733292
  6.0216518690765106  6.1774477771502703 10.3409739098636511
  1.2613859624543400  7.5084610941450300 13.5714763873607502
  6.7973816463253209  3.3942626230960302 13.5721245379051112
  1.3719607585376403  1.5511201106678600 16.1248261752332205
  4.4272530945591004  5.6606500932621104 13.1674643248817986
  2.9805121154545504  7.8655152317254213 10.6065317582434702
 -0.0732292941636299  3.7542081399724903 13.5651551334500997
 -0.5995893707645701  7.1968205979327404 10.1104031186898009
  4.9354987291809902  3.0858646192701102 10.1123433119483295
  3.2888122147424697  6.4180451031882502 12.0401847372575190
  0.2316568895418001  2.3061991720721498 14.9957031822566407
  3.5381163037699501  2.3918086840484003 10.7809399705803504
 -1.9942961177197203  6.5005223081507308 10.7831410741876699
  5.4559899307890012  1.2846202592288702 14.1356422273301394
 -0.0788157009947699  5.3953577583877701 14.1385228865129005
  3.8661519085329603  7.4081529356918310  9.1823118697009996
  0.8119995188854500  3.2991581744335901 12.1391538215736094
  1.3136405587260600  0.2139915877216900 12.0608543572476083
  4.3649179441497301  4.3208853441625408  9.1034416142301993
  1.0589407808466604  7.1376113367756702 10.7399673740066692
  6.5934904648308006  3.0283477725450201 10.7384037455646002
  3.0469034669463002  1.8028751857836101 16.0624599868201159
  6.0995154077190907  5.9123096195696805 13.1064925857262100
  1.1776291834786201  0.1049246788814700 16.9945256838738494
  4.2341801934194701  4.2179845403376399 14.0379621781967892
