Ca Ge  O 
 1.0000000000000000
    11.6113350000000004    0.0000000000000000   -0.0164840000000000
     7.7508819999999998    5.4874060000000000   -0.0283250000000000
     0.0000000000000000    0.0000000000000000   40.2558659999999975
 Ca  Ge  O  
  24   8   8
Cartesian
 11.6822909942329289  4.0468405984533398 16.4515359091336286
  6.1800488145805401  3.6237055145640200 26.3519117970126295
  5.9846513270994697  3.9082944071431598 19.8435553415419790
 11.7065623328599795  4.0118380818011401 23.1980168428403672
  4.8156803898068805  1.3991117806527402 15.0839745723887688
 10.6230437922424201  1.4094575713029602 25.2055197862692140
 10.6027894639986009  1.4287262682276001 18.5050703112169366
  4.8001049406400398  1.4331184977381202 21.8200414742278817
 14.5621117161158313  4.0542903008389404 18.3910183353360708
  8.7391719850025389  4.0779570987985201 15.0055363829813988
  8.7594209103462095  4.0586757808400797 21.7059883208952620
 14.5465272460143815  4.0882954814506398 25.1270784113345194
  7.6556582504668302  1.4755590286011400 17.0130482313065698
 13.1821721030621113  1.8637051497310799 13.8591399494398591
 13.3775593620767808  1.5791104953756401 20.3674928145909391
  7.6799202440997796  1.4405683098718398 23.7595235052174765
  8.0829306539187495  0.8511767867276000 13.8668796760193196
  1.9492982796724998  1.2692084732888000 23.7697070591054818
  1.9542780903760799  1.2142940259806401 17.0210635444856777
  7.8254074993829805  1.0989545136369399 20.3747521749592266
 11.5368105755486603  4.3884466574457797 19.8362983978190890
 17.4129122727714716  4.2182063614348602 16.4413579733333854
 17.4079414701128208  4.2731152664629599 23.1899845851959192
 11.2792839295188685  4.6362199395562600 26.3441769541259880
  8.7287536237596299  4.1141268964550406 18.3884441698984560
 14.5265204903396921  4.1043224384067205 15.2098219523771387
 14.5216032140871327  4.1058785021261404 21.8329787459781066
  8.7256332021052003  4.1085413207616996 24.9656954536476512
  4.8406080939606397  1.3815261808964199 18.3780847071981661
 10.6365827064763607  1.3788604539356799 15.2453744431164395
 10.6334686905405800  1.3732855786840399 21.8226156200283796
  4.8357019968992496  1.3830787326759999 25.0012463267182952
  2.8757552978271099  0.0467591742590800 21.7689484116073153
  8.7355788866816013 -0.0467606558587000 18.4704323865512094
  8.8959999852002198 -0.2376065455180400 25.1710743184092784
  2.7153344426263102  0.2376111549390800 15.0682980064451186
 12.5552854603478519  2.7872902889689000 18.4589159466181911
  6.9544328544159502  2.4909865528166000 15.0543840269703395
  6.8069268607102593  2.7001180706156798 21.7521398449000394
 12.4077786774652399  2.9964135207849201 25.1566629355331592
