Cs  Y  O 
 1.0000000000000000
    12.9848579999999991    0.0000000000000000    0.0000000000000000
     0.0000000000000000   15.7641849999999994   10.7500760000000000
     0.0000000000000000    0.0000000000000000   46.1142869999999974
 Cs  Y   O  
  48  16  48
Cartesian
  0.0061701448244400  5.1744928354660003 20.4916227194591016
  0.0186135342458400 12.9450898265746499 29.6720284279363185
  9.0053032582229395  4.0400374497074996 19.0893672199461903
  9.1782835111929586 11.8419592951877988 28.2357012348252852
  3.9767626077613198  4.0207854387762501 19.0626723275386567
  3.7979456611202997 11.8437713882535505 28.2424826602161119
  9.8390563158540587  3.9429999054470497 22.8600888935994746
  9.4301100293648386 11.9779091537022495 24.3849315583701696
  3.1473098754026396  3.9449196678963498 22.8478491991912875
  3.5499701921340598 11.9726691386082500 24.3848490846336645
  0.0056677606684200  2.6411367570810498 17.7082692863600180
 12.9847258141455590 10.6791055183610499 26.9595484515294217
  6.4978519960951191  1.1359684322348000 19.4322239327586104
  6.4915784918009996  9.0847834758146995 28.7954160064997993
  2.8104451326430198  7.9049401638878996 27.4666159992230376
  2.8767884079252597 15.6966548572225495 28.9218468297224405
 10.1737707661288788  7.9037652591798491 27.4672623235276880
 10.0545228943514982 15.7128191372378492 28.9316154340449145
  3.7055020421665796  7.8191259311381991 23.3098535802446420
  3.4190251707245398 15.7472033469924479 32.8368830494708277
  9.2684801004697803  7.8154921288538501 23.3127727963763576
  9.5579647844189406 15.7528954789122491 32.8489167705687706
  6.4917108075040195  6.7985734029623996 26.0302073304977988
  6.4842880134283192 14.9790636385577987 27.2433140585201059
  0.0003200767497000  5.0317353713011501 28.1430881343340182
  0.0036061547637600 12.6258259851458483 37.7519814943811909
  9.3002167814533188  3.9219301263434501 26.7130451867030914
  9.3562537152437990 11.9024149446627998 36.0015490539414742
  3.6837746091237595  3.9214742261132498 26.7111751704616971
  3.6198304162055996 11.9026548755584987 35.9975213425527727
 10.2034767451697999  4.0199466264924002 30.8622146615655879
  9.9197102031380986 11.8318265499953483 32.1049070508306187
  2.7975936291346799  4.0132668683823498 30.8650179886386979
  3.0660477773698798 11.8352935672023989 32.1029868366401274
  0.0006637859409600  2.7434414308337001 25.3805690333287615
  0.0034626720828600 10.6668794470424491 34.7072090222607201
  6.4913986515176996  1.1468550207539501 27.2188698046362489
  6.4919747896671591  9.1905144951770996 36.4524606042823791
  2.5171030369277996  7.8160183373491492 35.1124883217487209
  2.6883495516576597 15.7321290027280494 36.6819846722886282
 10.4661175724783995  7.8136510296876995 35.1111156216996818
 10.2964448225381382 15.7318173447906009 36.6833686199020548
  3.3451974232911001  7.8798700651986993 31.3329202546319614
  2.9563789651876800 15.6176901628553502 40.5377983909669055
  9.6385488131669383  7.8792891549814499 31.3330221486309597
 10.0332925216729194 15.6138252576188989 40.5353569359822572
  6.4918596139766995  6.6499125667987498 33.6863990874419628
  6.4912702312720798 14.6205611642454993 35.2551893262127720
  0.0012912142795200  6.4965238939117498 24.5927126033217007
  0.0030862410494400 14.3244941634023490 26.0412809050932772
  0.0008519365333800  1.4003481600931500 21.1661410937359804
  0.0008725824576000  9.1675582160545499 22.7610548449575880
  6.4914113766785393  2.5826672372742001 23.7304309834196374
  6.4915621308799194 10.4333332039092994 25.2944168969662968
  6.4897302271132791  5.2980395908642999 21.9596585346661577
  6.4986334248495590 13.1611067689133492 31.1688447971343763
  0.0001762045230600  6.5265226650411998 32.2233205361977681
 12.9832289197153194 14.4263306408605008 33.7519235930256229
 -0.0007004032405200  1.3874166414957998 28.8574812695808518
 12.9844609230423593  9.2391808988998498 30.4516402840285210
  6.4898734500970194  2.6442088814538498 31.4264354641606580
  6.4919105146200593 10.4223282263608006 33.0141343923536894
  6.4904899711548598  5.2910716634524491 29.6009627993248188
  6.4921181424994794 13.2471541539591993 38.8812713494394302
 12.9775271387189388  7.2035660352582003 22.4256865350773111
 12.9701205757157396 15.0090075503234495 31.6190533543836167
 11.2888677808346394  5.5020763831703992 25.2158027202440707
 11.4451618420317587 13.2961214959735994 26.7000123152421978
  1.6976279993048999  5.5006661191802992 25.2176562956664583
  1.5403914971141399 13.2904857998360999 26.6852682067682707
 11.3679842609314790  2.5249164066614997 20.2989188797093192
 11.2705427701335594 10.2506225163548983 29.7242058019461908
  1.6171316183483999  2.5326747503092499 20.3010115038092707
  1.7133674650810198 10.2509270804090988 29.7240482682614697
  0.0014063899699800  0.8442835595379500 23.2986727778048177
 12.9799267404773389  8.7791182932924503 24.7046856057003978
  6.4930242258907187  3.1667168919669502 21.5868834393576421
  6.4929450182569193 10.8250566487650506 23.2314984444509491
  4.5190996136643600  1.5629713349112999 17.3136038808893886
  4.6674339569074803  9.4786336668688005 25.9762688987555883
  8.5015459534694404  1.5218164076991998 17.2696245858926609
  8.3180126467056592  9.4787058668360995 25.9755715437971411
  4.5140296758582599  5.9475968433989994 21.5013827580900916
  4.7156045338729795 14.1488314853195991 30.5699381396031278
  8.4742050364646389  5.9397152238245496 21.4907823715895248
  8.2858231837236591 14.1500817428319490 30.5667285205888604
  6.4927381694689794  4.7668305384404492 24.0815631662960890
  6.4904393302086598 12.4234026571744991 26.0237744382698502
 12.9846814059311999  7.0708719538717997 30.0957122871516418
 12.9826805691619782 15.1351254442952481 38.8965777243405455
 11.0059479813931187  5.8742481399380502 32.6748768814666022
 11.1972912906981588 13.4381011552505498 34.3693324810773788
  1.9781935141424398  5.8759238728035506 32.6761897762644367
  1.7850746553544798 13.4392678625823994 34.3661604209486597
 11.1697224894354594  2.3477745751001997 28.1917261706979296
 11.0120322963061792 10.2426997522576002 36.8693291018284981
  1.8157159337171400  2.3471493675230999 28.1907215495247883
  1.9701860119109997 10.2468897149887486 36.8655777260585680
  0.0009482841797400  0.9565961261378499 30.9476467673958204
 12.9842935482227393  8.6679090620006995 32.5899855013050868
  6.5033989975841395  3.0487697327225001 29.4650158214066771
  6.4927837463205602 10.9738726045091006 30.8775163234646151
  4.7760786533392201  1.5763492952278499 24.4485825697043957
  4.8804782101450197  9.2975110633112994 33.8801889495096233
  8.2104233595321592  1.5769532211552000 24.4477603867958386
  8.1053213219085585  9.2983233917643489 33.8806686569238380
  4.7733401467870200  6.3367461544860992 28.9472931914011085
  4.9495957003389597 14.3040776521251498 38.2403365906032704
  8.2073755536623985  6.3354938476297002 28.9484281145619811
  8.0371488696798590 14.3049658063080489 38.2401103481476312
  6.5033064155466000  4.6421115582455501 31.7530504857079379
  6.4927603735761599 12.5852418790725995 33.2990314149845830
