Rb Sn  O 
 1.0000000000000000
    10.2065090000000005    0.0000000000000000   -1.2585240000000000
     5.0431140000000001   16.5562350000000009    2.5494020000000002
     0.0000000000000000    0.0000000000000000   37.9204790000000003
 Rb  Sn  O  
  48  12  44
Cartesian
  4.5187021741104605 11.8225948314426024 13.5988407069741797
  7.8571800370905809  1.8621170019787501 13.8536861472307500
  5.9761642621002800  7.8155987111059506 17.0021539595968498
  8.6641549094520016  9.0084198139063520 14.6282570013957898
  7.5906209068228909 14.8723713643981519 18.1418276041763740
 10.5128018564849004  3.5826442544257500 18.1526761580601210
  7.3360029005989507 10.8102782462920501 19.8107633622290713
  0.3254535142014100  0.1289151238275000 13.1649679472472982
  8.7829842249088799  5.4065438369045999 15.6657068802156410
  6.7268968150672706 11.4350320786381516 16.3857018522177107
 15.0701254594120204 16.4576833489131005 18.4365330008258681
  8.5665040998046305  6.3091473851430004 12.1609245252877702
 12.3858654953405924  9.4946209724691002 13.8481646731564592
 11.1410509402570383 15.3951477295111498 17.8663795607673208
  4.2292179450249003  4.3400968069839001 19.0985807544028106
  9.3137990714890009 10.6292065120311019 11.4966774903967686
  3.9829430549966101  1.4236171710109502 13.6846383351588496
  2.2314563341325999  6.6465053420581501 17.2746462838498971
  3.2218443654042801 10.0164691950479998 19.1825146193526592
 11.5971682999363885 14.6574393150022502 13.8218100139164495
  5.0059868735243498  4.7306812382381995 15.1578125998958910
 10.6996651700371306 11.9084066252593512 16.0037967612007428
  3.4460922864595505  1.0792453307004002 17.5653456583653806
  2.0611592632250000  6.4198655510820002 13.1118935187267613
  4.7366820049555196 12.9729791582533505 21.0603900387022094
  7.6570695741146109  1.6814383127367001 21.0702697239014007
  6.5836616997976103  7.5491054134872009 24.5868954988471309
  9.2729771821534612  8.7434635971450003 22.2093834350880215
  7.3918902010944496 14.6949125317389004 25.3576651937802708
 10.7270407786283020  4.7310529257139500 25.6110608314673698
  6.6863494453856900 10.2478374467401494 27.0483249602755116
  0.1815620391098800  0.0969423850449000 20.7755360752465101
  8.5186818663331501  5.1208487834952008 22.8260025785560323
  6.4670521966277708 11.1494504354385011 23.5465283471896001
 14.9258564042766793 16.4250054800818504 26.0483440112693927
  7.9133232926868500  5.7493007820532505 19.3996746915989000
 13.0199704429309904  9.9101283320806512 21.9370982043788700
 11.2677505924775119 15.1292643635898010 25.5272559805851387
  5.9325988406319805  5.9311685400930001 27.7148057568607840
 11.0193133878959397 12.2150506139389492 20.1136581314886094
  4.1081450655147407  1.1602316442640501 21.3451426403704296
  2.8633598992653200  7.0580204967241507 25.3593809864671265
 13.1867424520996916 10.1360063706844503 26.1012572382154815
 11.8031661049048004 15.4757762628364510 21.6479690407823071
  4.5495319088130604  4.6491780390178503 23.2054542262720815
 10.2462425354892801 11.8249009494157491 24.0582297502849229
  3.6555700022740103  1.8992677032576000 25.3886431223500999
 12.0287692074051122  6.5421174525714001 20.0271085655195193
  8.0744060917041391 14.1573883691749511 14.1016641609530513
  1.4258866630150100  3.1460505427935002 15.3199871049168301
 10.0799812953355215  8.7135413480671495 17.9450212332323069
  5.2960548071677396  8.0183531529723009 13.6681792192831804
 13.8537582018383105 13.5802095403507508 16.2663233592534695
  6.8053365432246107  2.2585404861928504 17.4931676386944517
  8.4439628965623594 14.2958579306586007 21.7181982789043957
  1.3949277391515400  2.9763203261946001 22.9461692250671803
  9.9522654965020703  8.5388480689023005 25.5407947273989784
  5.1689607709459597  7.8455895029966998 21.2658914041566298
 13.8245587936263821 13.4077636045248010 23.8926147257624812
  7.1781622325544507  2.3963933279227501 25.1059982679152895
  9.7518751596658504  3.6821003726307002 13.6667566174726911
  8.3025550233459704  9.5487568807968000 17.5765744990330504
  6.8826136109598313  6.8475332997387008 14.2881171514123508
  5.5049285878301006 13.1991249111770994 18.1107592617294699
  8.5443765725113003  1.3006982188134000 17.7684118258318406
  3.8971454199645299  7.3505555930614506 15.0564863429065205
 12.6659386197408494 13.0248422266402510 17.7887050607190993
  9.5667073293702103 14.7038747528691012 20.0984564136183117
  2.6620381587717303  3.7622746028676004 13.8945475502357798
 11.2208164160028616  9.2394120735016507 16.3787119220035997
  5.7965914576491100  9.8053687551181490 14.5817390813794407
 13.5266368541609801 15.5594523023382010 15.9195078967098897
  6.9352182363408312  4.2374413619275497 17.3817775375748091
  9.3559422630915900 12.7938567551013005 13.4760662592888902
  1.5907002947907700  1.0998599955859500 15.2781126944835091
 10.0462302115149011  6.7063904029895998 17.9594693459750587
 13.2979485127033108 12.6474630484219510 14.5787192403005914
  5.9078965582660903  1.6223143419282000 15.8033578291950629
  4.3538569542887702  7.1860829744491506 19.5511429463144495
 10.2416382777174810  8.4154337541535504 12.3935623804515096
  9.1242064242118399 15.1087786717749015 15.5071624533459413
  2.0333841146931602  3.7179204493026003 17.1514359585307297
  6.7052918538925894 15.2535538409206506 21.4441137336379199
  9.7433241351775202  3.3593022998992499 21.1045224711992994
  8.3615219662117291  9.7095012008494503 24.9252064763966494
  6.9469944923725606  7.0111441663192506 21.6330289404004539
  5.4987052436630801 12.8721306606849009 25.5449308355516393
  4.0285080776467304  7.3190894750698501 22.8311999077166909
 12.5878625206454320 12.7939713242475008 25.3179558717317441
  5.6826993756869202  1.8515506472394001 19.1131441827066020
  2.5825139294546302  3.5309344967749503 21.4232238220671469
 11.3511008560103797  9.2067242709294010 24.1536293117816747
  5.2006061407665705  9.8530520364169512 21.2506875759395122
 13.6594390311713312 15.4541892502693514 23.9363067775916889
  5.9027091111907097  3.7668169715022004 25.7274944171287707
  8.3153437762605602 12.3171461271276019 21.8299008271072381
  1.7223828934926302  0.9965288905792501 23.2947939911725932
  9.4550433087824111  6.7518602812312496 24.6245183505702379
 13.2158611195882010 12.8390935215541493 22.0612802297853285
  6.1241461717673600  1.4464588150663502 23.7029083723945710
  5.0086679666782405  8.1386179751370005 26.8181889982147048
 10.8960590799036297  9.3702629523253513 19.6597024098944502
  9.3419043552468324 14.9318375525841009 23.4080992539163617
  1.9550563634547602  3.9099659872462502 24.6317581741074392
