Cs Zr  O 
 1.0000000000000000
     9.1966970000000003    0.0000000000000000   -0.2385210000000000
    -1.3040419999999999    9.1037739999999996    0.2385210000000000
     0.0000000000000000    0.0000000000000000   38.8574460000000030
 Cs  Zr  O  
  16   8  24
Cartesian
  6.0749418417253409  8.6863672366283602 14.0678755975174212
  2.1286118023512901  4.1344767771942399 14.0678732541446099
  5.4286594286439600  1.2734544788189601 20.5277927092707593
  0.1782891805518101  5.8253422071208796 20.7663129678999923
  1.8177144979739202  0.4174063992206800 24.7895645309319015
  5.7640444687257197  4.9692941275226001 24.7895672032489180
  2.4639850040468803  7.8303278056153793 18.3296463681600308
  7.7143525878330212  3.2784426263701798 18.0911270130958499
  4.7277044845797898  5.8677640642438202 16.2128893539497412
  0.7813788980575300  1.3158726944322998 16.2128837660242837
  2.9600354793837198  7.4002708020442993 22.7836839814095313
  8.2104040857948615  2.8483836199688199 22.5451595033210737
  3.1649506732733101  3.2360101178316598 22.6445550917524230
  7.1112777154905507  7.7878990296241994 22.6445551466122517
  4.9326168803390198  1.7035036531443999 16.0737578229833389
 -0.3177503177506100  6.2553932022011205 16.3122823177682719
  6.4307422322101502  0.4046816901499199 25.1019103553545513
  1.1803726265187300  4.9565681439234801 25.3404286257924944
  6.6884779554472606  8.1544760543574597 18.8433302188973713
  2.7421584840225504  3.6025901468103396 18.8433374181509414
  1.2042475038712501  0.9492240229976601 20.0140641083073589
  5.1505768060976305  5.5011254069605791 20.0140577792259009
  1.4619141980880201  8.6990906711707598 13.7555262449169025
  6.7122822547494305  4.1472054008878194 13.5170068755414601
  1.8598209850603402  0.3809080036885800 21.7420522048252529
  5.8061424598338194  4.9327998286888004 21.7420396466263810
  2.6238089584743003  7.6917687294863395 14.8955133696120896
  7.8741734936259800  3.1398830040146999 14.6569948584827117
  5.2688466955987900  1.4120026304191999 23.9619251711464507
  0.0184812297890801  5.9638903587211196 24.2004414200001605
  6.0328279416556398  8.7228750090476783 17.1154073668731002
  2.0864983985015804  4.1709817274436194 17.1154096100670934
  4.9823222066721611  7.6946856697136798 24.8450615777320216
  1.0359965700403100  3.1427965758456597 24.8450575965790215
  2.8762643972600204  1.4915786279154599 18.8278187813681690
  6.8225925781418306  6.0434512439525401 18.8278254346234206
  2.9553454262007901  5.3566706357514002 24.8450592248183710
  8.2057154780026114  0.8047836357513999 24.6065420962517152
 -0.3995372329110598  8.3210195855360602 19.0663399648145706
  4.8508348580283407  3.7691106454407199 18.8278090785031829
  2.9103328448054904  1.4090873288711800 14.0123735183309996
  6.8566578513929999  5.9609769689656398 14.0123821910000412
  5.0163454248933501  7.6122237758594196 20.0296562292184213
  1.0700418198011301  3.0603458796334198 20.0296344425965778
  4.9373079849639101  3.7471041835882599 14.0123767318759214
 -0.3130591403554399  8.2989880883050997 14.2508937149447696
  8.2921593525575705  0.7827830003143000 19.7911230736904997
  3.0417922003856503  5.3346908479567592 20.0296623559865736
