Sr Bi  O 
 1.0000000000000000
     8.7713920000000005    0.0000000000000000    0.0000000000000000
    -2.1928480000000001   10.0596300000000003   -1.2295160000000001
     0.0000000000000000    0.0000000000000000   38.6371070000000003
 Sr  Bi  O  
   8  16  32
Cartesian
 -0.0000114905235198  4.7420524433016000 23.5718609652577697
  4.3856846191188801  4.7420527450905006 23.5718597692590812
  2.1928109189403204  5.2192304893701005 20.2990448395970802
  6.5785074452238410  5.2192300869849007 20.2990448887777220
  0.0000371907020800  4.8403998124187995 17.1085453507752980
  4.3857330591312005  4.8403992088410002 17.1085465836594679
  2.1928593150956806  5.3175779590835992 13.8357303719326605
  6.5785541528862410  5.3175772549095006 13.8357304579987801
  0.0000925601140798  8.2942783070301012 19.7112882843246879
  4.3857893933963199  8.2942785082226997 19.7112882597343706
  2.1928482850702400  1.7435152541289001 24.1194074937750393
  6.5785441534993607  1.7435150529362999 24.1194071319942935
 -0.0001395309182400  1.9604652585608999 21.2739831842556484
  4.3855561840115200  1.9604645543868002 21.2739832703217715
  2.1930462115307203  8.1553827825014995 22.5520937662057896
  6.5787427158857605  8.1553824807125999 22.5520938030912710
 -0.0000006578543998  8.3161144440821992 13.2881839294815123
  4.3856955614304010  8.3161154500452010 13.2881838065299114
  2.1927552644580799  1.7653520953550998 17.6963026664946703
  6.5784514837428798  1.7653514917772999 17.6963027402656294
 -0.0001979045320000  1.9042470163059000 14.8554972583845313
  4.3854981173964802  1.9042473180948001 14.8554972214990499
  2.1929871142771202  8.0991650432280000 16.1336085516010108
  6.5786833116334398  8.0991645402465000 16.1336078403346690
  0.0000062934737600  1.9513715542334999 23.4446512699593796
  4.3857025127585603  1.9513713530409003 23.4446512945497005
  2.1929626420934398  8.0491582201128011 20.3689664621257585
  6.5786584885940798  8.0491561075905000 20.3689674930662576
 -0.0002766277752000  4.0267703992593002 21.2252698541203912
  4.3854195695811207  4.0267698962778002 21.2252691428540530
  2.1930946296145604  6.1167287479767003 22.7979421089483623
  6.5787902787588806  6.1167283455915005 22.7979429308711374
  0.0000960467424003  6.2946657971316000 19.1695905983435502
  4.3857917178152004  6.2946656965353007 19.1695913833808511
  2.1928365971904000  3.7497890498208002 24.4817628567628169
  6.5785324656195199  3.7497888486282003 24.4817617222399306
  2.1928000643427206  1.7193591652062001 21.9172811069869731
  6.5784960424142405  1.7193588634173000 21.9172815302435211
  0.0001905365627197  8.2232299570365015 21.8860961188123788
  4.3858867777760011  8.2232312647884012 21.8860963453463704
 -0.0001138088112000  2.0104727858502001 17.0386236421804966
  4.3855824104736003  2.0104733894279998 17.0386239547806078
  2.1928405662452799  8.1082592505369000 13.9629404044214791
  6.5785369390294415  8.1082587475554000 13.9629400795262111
 -0.0002470023987200  3.9429013526195997 14.6096477196432701
  4.3854500720968002  3.9429012520233000 14.6096481183094991
  2.1931248032030402  6.0328596007407000 16.1823219186217493
  6.5788203207764804  6.0328593995480997 16.1823211704699297
  0.0000111396678399  6.3098409501792005 12.9258281432371813
  4.3857066353128005  6.3098416543533000 12.9258288299132005
  2.1927525672550403  3.7649642028684003 18.2379996289143094
  6.5784490496816010  3.7649644040610002 18.2379996043239885
  2.1926576169366405  1.8364005459450001 15.5214944333407505
  6.5783537046505600  1.8363985340190001 15.5214946792439505
  0.0000476944440000  8.3402703318123006 15.4903099544888292
  4.3857435848016006  8.3402708347938006 15.4903106657551692
